# File generated with Atomsk by jd14363 
   1.0000000000000000     
    12.7330000000000005    0.0000000000000000    0.0000000000000000
     0.0000000000000000   12.7330000000000005    0.0000000000000000
     0.0000000000000000    0.0000000000000000   12.7330000000000005
   Mg   Si   O 
    32    32    96
Direct
  0.9688489286724505  0.7818479996754057  0.9841141500161006
  0.1789718217334791  0.0760850423762465  0.5694084529296543
  0.1800209267743371  0.7717627161061347  0.2021439250733809
  0.7250814058429697  0.6982353315319300  0.2081400974974748
  0.7200385554111323  0.9788386176018120  0.4508040552473386
  0.7423094965589332  0.3798565142472830  0.7562789408429098
  0.4125177545926424  0.1235770936584118  0.6276493869219932
  0.1437401958737894  0.4451623621928910  0.3747886597465477
  0.3296362726098720  0.9931093140847251  0.2995417882312276
  0.5688906441128392  0.7816673262044765  0.6012529619375401
  0.9021318714009235  0.5227775720086509  0.5325814779278740
  0.0803336393575958  0.0270192475545161  0.9477058584184431
  0.4590199016693741  0.6174820766982803  0.8746790980168045
  0.8228761355653902  0.2501629515538307  0.0176268662350830
  0.1613372111226235  0.2522605574554944  0.8157417789550498
  0.2232868040892925  0.4686536827003903  0.6214995287218209
  0.3429619593191834  0.1853836512124052  0.9989024069468457
  0.9358444800821473  0.5241436842578098  0.1511470836414290
  0.4873764395815869  0.0837393527691391  0.1646474377691849
  0.7216594613570497  0.1765429895806214  0.4864896106678359
  0.1022811905474579  0.9032650891163767  0.4266853829017256
  0.0069900654176240  0.8427794445480415  0.6079697436521981
  0.5313022662785780  0.3184920258589500  0.8273252681429523
  0.7119183085015076  0.1655819099476844  0.8289049010960318
  0.3900398622094144  0.6871260546105675  0.6490947035146373
  0.7044465941871191  0.3807541348356542  0.2073942832683870
  0.5652565576596649  0.0376273838022894  0.8774088901719754
  0.3646249680811127  0.7614510710207343  0.0620406449179873
  0.9164189280676889  0.0647304632194279  0.6400038173677089
  0.0958731091962035  0.3073998665561459  0.0644951954643178
  0.9162650483486426  0.6104954041923810  0.7849093712862972
  0.7122543491861328  0.5212962763220816  0.4448713741639234
  0.8786916844269878  0.0834791083482709  0.2550812375493738
  0.5738299862114782  0.2739428403190232  0.0422654706405146
  0.1800111332702499  0.2939349712327592  0.5568008464049181
  0.6550960733997216  0.8253421799104212  0.0194144139266448
  0.7211419255596978  0.0387383489575340  0.0563432895902938
  0.9617115190699643  0.1826519540712422  0.8476308672508953
  0.9670962307681462  0.4246522402867597  0.8681377709355653
  0.5442251689310885  0.6150281728690205  0.2796302609564374
  0.1450009675408914  0.8448944309498743  0.8331068026246246
  0.9434644997930116  0.8621022025781748  0.2385946949404170
  0.1100069702480460  0.1203787403842693  0.2406775409116260
  0.3044539822276168  0.9868087259924221  0.7978737416298918
  0.4178038389711867  0.3252622668955339  0.2138706323401273
  0.4798913234390648  0.2142155142839225  0.3680346545728562
  0.5882244550505087  0.4992174005084320  0.6360177851883206
  0.1227030260448188  0.6274988958272789  0.7666621075757485
  0.8309591211745945  0.7636288348630298  0.4207771701210787
  0.7863960017617077  0.8122922227879100  0.6493614105433012
  0.7777990364455060  0.5921689606943336  0.0158914773578006
  0.2527894198098346  0.4513130144352825  0.0554938057507032
  0.1882759478094690  0.6258491088768537  0.0120821462955027
  0.1211926855579362  0.6469101934808105  0.4895288033131143
  0.9456131847111110  0.2723073783078229  0.5098941508883466
  0.5678064410963978  0.8527688232404071  0.2555132376007444
  0.3117397548647928  0.6280443610549600  0.4088627159402459
  0.5454460312411714  0.5182733427356928  0.0767379918480185
  0.2351924650755065  0.9921696739851326  0.0753468483242814
  0.3336014300614704  0.8529989169782088  0.4644719628682709
  0.5440305377589949  0.2709221742886861  0.6107716904485956
  0.9037292672620985  0.4000154941522561  0.3110822475888542
  0.6596380135245303  0.0099819900835723  0.6409414226594414
  0.4570805735052524  0.8438331442725899  0.8600438427638921
  0.0623031012876504  0.8259778613867987  0.3024892036826533
  0.2927463844056570  0.5478572516158410  0.9706884452011940
  0.0178909167176238  0.6537004484016949  0.6937868700615818
  0.6443603650246009  0.5541017473997065  0.3081638512279269
  0.1726486510247076  0.6212222997949940  0.3736453065485455
  0.2531099870672366  0.6817188278868427  0.1041876592693957
  0.9179731969233094  0.3934840320383768  0.9786332959305909
  0.2327745819209354  0.9276153402637823  0.9774769149104441
  0.8103153955667705  0.6027804850078854  0.1426073436909546
  0.7827868966429713  0.0928110423047583  0.1543603623707213
  0.1315855650289107  0.9025013824868118  0.7379439346174180
  0.0032151787721422  0.2919137507953345  0.7875386489974630
  0.0519080931722593  0.8823133576907572  0.9341360999867576
  0.5344000306975656  0.6254013350809631  0.6420123942368707
  0.7880021684574360  0.0783316193314590  0.3506840654554704
  0.9239341749635062  0.9707780068347465  0.2830235371003112
  0.5693090794305433  0.8787786943865864  0.9190073530767370
  0.2932166035542375  0.8425183931835493  0.8190266641540610
  0.1520984930216781  0.2622830501089138  0.2422950243016476
  0.6324397223459526  0.8236435289028761  0.1454825081930788
  0.5354530696986091  0.3742506536085392  0.9829794009167107
  0.3249251406321116  0.5831821596898915  0.5213021078262341
  0.5050512420703853  0.1786914505192752  0.9447252793420926
  0.6887493366857764  0.5110032681409159  0.0597361669999956
  0.8865017731906722  0.3643677300950059  0.5554140046361600
  0.4355803386412382  0.9610450786238421  0.8259879734391347
  0.7856001329352010  0.4052075737239138  0.3721482177659181
  0.6708026569045047  0.6770382933101710  0.0033870950215676
  0.8827600283333082  0.6011217967603549  0.9514281245576365
  0.2363574742692391  0.5746391356766181  0.7213502742977282
  0.7198966682065637  0.1050634537749970  0.9486611415583902
  0.9562765382533950  0.7620840406582403  0.4693032345971514
  0.4216534722296986  0.5861645178578465  0.3606088245484830
  0.9860724691123511  0.1372152681849062  0.2317970699833689
  0.0941257587192499  0.1052214477468620  0.8266999938077008
  0.8522333255180965  0.3957456317371801  0.1832750093313484
  0.4020855228777458  0.7765926570321356  0.5404585651257392
  0.0643378987722136  0.5037827800815174  0.8431189182179231
  0.2592212444110396  0.9073549078169556  0.1888484824397706
  0.5403913869509082  0.4068466946227943  0.1719351094086640
  0.4154103189088721  0.3231973166538259  0.3484222110560662
  0.8918921158914217  0.9028896386837449  0.7021128426256444
  0.5800287412050299  0.0083507107908260  0.0781620818806359
  0.4448642314855779  0.8867121279790845  0.2206488098906202
  0.7588588541548914  0.9110273281474824  0.0156496404513526
  0.2645624093284119  0.1961471456049236  0.5243997799239642
  0.0722095798374311  0.6256916430456579  0.0561361536906906
  0.3111482415366449  0.7704530258244342  0.3722719525588457
  0.3291987355347114  0.4053106975321865  0.1529484781655757
  0.0258304503038183  0.9907992871990983  0.5472864253884671
  0.8881720243361610  0.1583762027856449  0.5030933781811623
  0.1344983830919205  0.0718936949855724  0.0981835189745637
  0.5185679020112914  0.3946257641793446  0.5783648779835625
  0.7923230284468269  0.7033849483707042  0.6851781616487288
  0.1827983347403226  0.4111992487107919  0.4984230172152463
  0.4391977713572234  0.1159935726701692  0.2966766433376719
  0.6894896139766934  0.2986344490289508  0.8728355475034663
  0.4555472802304251  0.2384082056077260  0.7083096591262509
  0.2984352212473068  0.9654260897249289  0.4601320021111634
  0.7561257876010016  0.8099349390159061  0.4955124222468438
  0.9751696418937889  0.1903522572116311  0.9992804439772294
  0.7940591975271004  0.6420494168782566  0.4259328945714648
  0.4699626201315477  0.2337003474985315  0.1381545460894870
  0.1302709109689644  0.7118044201802409  0.8596300556811438
  0.0508280107034537  0.5442768003401887  0.5013077913622596
  0.8274501209541395  0.8149931113715732  0.3045097817908110
  0.7669826061629437  0.0165205599956937  0.5765359095197911
  0.9951031978696642  0.4806678637423131  0.3113574681062798
  0.9779349817793116  0.2983915700250641  0.3693404537608524
  0.5915408023001624  0.2736506928600233  0.3929124045625344
  0.9443302140114604  0.8092482840452143  0.1074587454783969
  0.3523761282292088  0.0683973805739038  0.0923421990369588
  0.4603013673999927  0.1936742248456762  0.5027839513492662
  0.8940398585802379  0.4673551012736765  0.7793485874920544
  0.1255321856141346  0.4400520569204484  0.1045310296207040
  0.6705765256117560  0.2557369606274608  0.6220904182534940
  0.5961288312427218  0.7349897677132970  0.3046449244592552
  0.4602277223853643  0.7558260539779309  0.7572326448610224
  0.1390415604071389  0.0396427339928779  0.3626780925880359
  0.1460581661948365  0.7625498420453243  0.5556966914957453
  0.6641871886759159  0.8660233028157501  0.6789606099211223
  0.5260275658398056  0.6220210834237991  0.1549831561434214
  0.4701695705897347  0.5815541802681085  0.0077584496953399
  0.0469886152076215  0.2496584203214147  0.5713806015973204
  0.3031999909505922  0.0134813930031754  0.6614980740342855
  0.8832963817511037  0.1151102060131059  0.7848567303058125
  0.6786577259625839  0.2645673234324271  0.0916198861228704
  0.7158044571168403  0.5341623805486018  0.6071772793820459
  0.4328164452686348  0.7555190140633098  0.9385373853158960
  0.6227260273207416  0.9543853197693225  0.3294041454592024
  0.5847210570581091  0.4407270206162237  0.7597092068847668
  0.2009936817053770  0.3285255501878432  0.6928516320016848
  0.2935720712266124  0.0972141676669802  0.8617585774709496
  0.2832424478267955  0.3233218978036252  0.9861364900515074
  0.5450213072849384  0.9906289740488746  0.5738184477154471
  0.6658125273475148  0.0766910374186008  0.7461265644209754

  0.68992407E-02 -0.85737663E-04  0.10145253E-01
 -0.58898574E-02 -0.10417076E-01 -0.32067788E-02
  0.78105977E-02  0.82131119E-02 -0.12765472E-02
 -0.64857117E-02 -0.65594628E-02 -0.22211637E-01
 -0.11522003E-01 -0.43038247E-02 -0.23038058E-01
  0.60340561E-03 -0.21636654E-01  0.17431273E-01
 -0.66794684E-03  0.56173452E-03 -0.34910017E-02
  0.18645858E-01  0.53100245E-02  0.32935336E-02
  0.14335283E-01 -0.75303704E-02  0.94633381E-02
  0.19698597E-02 -0.18980563E-01 -0.60577414E-02
 -0.11323897E-01  0.11584589E-01 -0.12095320E-01
 -0.51135452E-02 -0.16052286E-01 -0.30089626E-02
  0.34950216E-02  0.52256659E-02  0.20007208E-01
  0.86363498E-02 -0.30018828E-02  0.72338461E-02
 -0.11516316E-01 -0.24896545E-01 -0.12755509E-01
 -0.74013404E-02 -0.32319638E-02  0.89153999E-02
  0.12653611E-01 -0.28373724E-02  0.12158759E-02
 -0.14337849E-01  0.89456317E-02  0.17893064E-02
 -0.54348198E-02  0.35169044E-02  0.85988970E-03
 -0.10941589E-01  0.73550602E-02  0.48940680E-02
 -0.91203487E-02 -0.47058316E-02  0.11731132E-01
 -0.30991156E-02 -0.59411451E-02  0.21157383E-01
 -0.17815226E-01 -0.53634475E-02  0.21108670E-02
 -0.15090376E-01 -0.11132529E-02 -0.41119708E-02
  0.83718956E-02  0.64277668E-02  0.67069843E-02
 -0.72954734E-02 -0.12320759E-01 -0.11589042E-01
  0.51171077E-02  0.17010029E-01  0.42589216E-02
  0.24909390E-01  0.14523153E-01  0.84340939E-02
 -0.15598263E-01  0.14583158E-01  0.96209148E-03
  0.29590723E-02  0.18326649E-01  0.10345671E-02
 -0.13460088E-01 -0.18177891E-01 -0.17759340E-01
  0.63609437E-02 -0.75306392E-02 -0.81891848E-02
 -0.79434406E-03  0.24646992E-02 -0.69893241E-03
  0.14656954E-01  0.17101611E-01 -0.62177897E-02
  0.89889592E-02  0.58699428E-04  0.52693873E-02
 -0.14315529E-01  0.51957982E-02  0.35328613E-02
  0.12918349E-01 -0.18275512E-02 -0.12816286E-02
 -0.20532233E-02  0.87755759E-02  0.35331831E-02
 -0.11035232E-01 -0.39894757E-02 -0.34943441E-02
 -0.10548112E-01  0.10862027E-01 -0.81734558E-02
 -0.32328589E-02  0.44101228E-02  0.68555076E-02
  0.17673282E-01 -0.11639616E-01 -0.99261354E-02
 -0.34721420E-02  0.66332291E-02 -0.37605884E-02
  0.42418826E-02 -0.87490736E-04  0.63606400E-02
 -0.17175178E-03  0.18157216E-01  0.78943364E-02
 -0.15719151E-02  0.77252533E-02  0.14654561E-01
 -0.18425121E-01 -0.87170619E-02 -0.50087108E-03
  0.49825496E-02  0.39081745E-02 -0.28561042E-02
 -0.92758917E-02 -0.29745971E-02 -0.81050470E-02
 -0.69071413E-02 -0.11493450E-01  0.70933263E-02
  0.65157399E-02 -0.16358497E-01 -0.88927442E-02
 -0.76430096E-03  0.43164430E-03  0.27115500E-03
 -0.14188669E-01  0.40687376E-02  0.24829069E-02
  0.18634275E-01  0.34359824E-02 -0.56660690E-02
  0.50302837E-02  0.22409356E-02  0.79062222E-02
  0.12586552E-01 -0.61333870E-02 -0.69907349E-02
 -0.47168504E-02  0.69189609E-02  0.84015228E-02
 -0.74530181E-04  0.12135187E-01  0.86811764E-02
  0.60330860E-03 -0.89219492E-02  0.13890360E-01
  0.18931225E-02  0.25948440E-01  0.46924366E-02
  0.10118161E-01 -0.34525449E-02 -0.16425658E-01
 -0.44400246E-02  0.86417266E-02 -0.87364324E-02
  0.88225809E-02  0.69819846E-02  0.23037883E-02
 -0.14341350E-01  0.25347731E-01 -0.16684141E-01
 -0.17262574E-02 -0.11003651E-01  0.98428263E-02
  0.10268241E-01  0.62043156E-02  0.72724880E-02
 -0.19787361E-03  0.31587608E-02 -0.34985455E-02
  0.75143485E-02  0.75021607E-02 -0.57836497E-02
 -0.14042933E-01 -0.22662817E-01 -0.21489654E-01
 -0.37169945E-02 -0.76465961E-02 -0.10623976E-01
  0.75937003E-02  0.14539607E-01 -0.39840520E-02
 -0.81924744E-02 -0.29139161E-02 -0.79523615E-02
 -0.12736871E-02  0.62510778E-02  0.46978457E-02
  0.79816733E-02 -0.26992794E-01 -0.53998069E-02
  0.67390700E-02 -0.26334853E-01  0.22301517E-01
 -0.40166268E-02 -0.60606888E-02 -0.40251648E-02
 -0.15339631E-01 -0.95208254E-04 -0.50549130E-02
 -0.59282813E-02 -0.22344469E-01 -0.12803602E-01
 -0.19994377E-01 -0.62169303E-02 -0.15354161E-01
  0.23984078E-01 -0.31141931E-03  0.17522659E-01
 -0.43973115E-02  0.80257245E-02  0.63138315E-02
 -0.18527116E-02 -0.20719897E-02 -0.13141954E-01
 -0.35951693E-02  0.10287641E-01 -0.40386038E-02
  0.11486660E-01  0.23514235E-01 -0.48725174E-02
 -0.52884035E-02  0.49990568E-02  0.44731292E-02
 -0.10117181E-01 -0.26259581E-02  0.21306212E-01
  0.42413309E-02  0.87578965E-02 -0.11495258E-01
  0.47908400E-02  0.93349170E-02 -0.77824277E-02
  0.23732549E-01 -0.35892547E-01  0.53740746E-02
 -0.18599111E-01  0.86870949E-02 -0.23043942E-01
 -0.76033338E-02  0.25395001E-01  0.18648640E-01
  0.77094483E-02  0.17256759E-01  0.15696057E-01
 -0.71478342E-02 -0.29357240E-01  0.11564776E-01
  0.42497062E-02 -0.29019667E-01 -0.22606170E-02
  0.21080126E-02 -0.18325405E-01  0.48638321E-02
  0.14028698E-02 -0.89094821E-02  0.40478871E-02
  0.59345243E-03 -0.80518939E-02  0.69418721E-02
 -0.28527499E-01 -0.16455789E-01 -0.20880944E-02
  0.76504583E-02  0.79841530E-02 -0.14834877E-01
 -0.76451481E-02  0.21880897E-01 -0.13917521E-01
 -0.33020982E-02 -0.44634842E-02 -0.12411192E-01
 -0.15561050E-01 -0.35934468E-02  0.27469073E-02
  0.28908139E-01  0.84822429E-02 -0.10893594E-01
  0.52150665E-02 -0.11633601E-01  0.31130815E-02
  0.89357287E-02  0.84081460E-02 -0.81336490E-02
  0.22088046E-02  0.88962122E-03 -0.11077117E-01
  0.22649004E-01  0.19512636E-01  0.20064481E-01
  0.99196880E-02  0.41980101E-02 -0.15153927E-01
 -0.95978213E-03  0.41347566E-02 -0.20552629E-01
  0.11882440E-01 -0.12631144E-01  0.16969023E-01
  0.84083187E-02 -0.44588913E-02  0.70784726E-02
  0.25748025E-02  0.11005878E-02  0.28728388E-03
 -0.21900131E-01 -0.12363294E-01 -0.11189317E-02
  0.73423480E-03 -0.37091991E-02  0.17932559E-01
  0.23504754E-02 -0.42083989E-02 -0.32509233E-02
  0.93217044E-02  0.10610827E-01 -0.39490893E-02
 -0.18183710E-01 -0.34246155E-02 -0.17315760E-01
 -0.66263843E-02  0.11212752E-01  0.18813122E-01
  0.18058487E-01 -0.81518730E-02 -0.87249473E-02
 -0.23537303E-01  0.38279816E-02 -0.25413881E-02
 -0.43225254E-02  0.13714567E-01 -0.38561012E-02
  0.18116483E-01  0.29722177E-02 -0.61335165E-02
  0.84181290E-02  0.21029983E-01  0.90340338E-02
  0.31796289E-02  0.14930212E-01 -0.14223163E-01
  0.12087306E-01  0.21992762E-01  0.21939984E-02
  0.16007801E-01 -0.16090618E-02 -0.88886556E-02
 -0.52340628E-03 -0.13780473E-01  0.14361796E-01
 -0.26744796E-01 -0.13954040E-01  0.33014674E-02
 -0.10812296E-01  0.61880865E-02 -0.11627217E-01
 -0.57397443E-02 -0.56040879E-02  0.41407633E-01
 -0.43072754E-02 -0.15254272E-01 -0.87087945E-02
 -0.53097485E-02 -0.50844111E-02  0.18271317E-02
  0.15506612E-01  0.44847588E-02 -0.10115506E-02
 -0.85690764E-02  0.20114368E-01 -0.46393679E-02
 -0.16381682E-01  0.14920828E-02 -0.13162020E-01
  0.50959404E-02  0.87233001E-02  0.10220391E-01
  0.80876012E-03 -0.25781679E-01  0.55147066E-02
  0.80561517E-02 -0.43977024E-02 -0.15865195E-01
 -0.20143549E-01 -0.11045322E-01  0.80215398E-04
 -0.28964923E-02 -0.20924541E-02  0.12536292E-01
  0.18072417E-01 -0.68272693E-02  0.26598311E-01
  0.59166086E-02  0.21019990E-02  0.77711649E-02
  0.90073483E-02 -0.58944698E-02 -0.38380257E-02
 -0.74874947E-02  0.25588079E-01  0.12520234E-03
  0.91932637E-02  0.51168521E-02 -0.15426044E-01
 -0.14497199E-01  0.10943673E-01  0.16097281E-01
  0.49099750E-02 -0.56259380E-02  0.11872164E-01
  0.17972096E-01  0.12350688E-03 -0.72366172E-02
  0.83596257E-02  0.23512987E-01 -0.14574661E-01
 -0.71584030E-02  0.55086570E-02  0.20165523E-01
  0.16981032E-01 -0.10240354E-02  0.75920837E-02
  0.10315332E-01 -0.10042715E-01  0.27159806E-02
  0.34646723E-02  0.11091944E-01 -0.35666728E-01
 -0.19413316E-01 -0.16290012E-01  0.55713095E-02
  0.16776461E-01 -0.27167341E-01  0.49563170E-02
  0.42811127E-02 -0.60782800E-02 -0.10216430E-01
 -0.40416520E-02 -0.11385266E-01  0.13863776E-01
 -0.11325669E-01 -0.19490452E-01  0.11833352E-01
 -0.66085945E-03 -0.87960937E-02  0.40831609E-02
  0.15949500E-01  0.82403445E-02 -0.94267197E-02

           1
   1.0000000000000000     
 -0.86614876E-01  0.13104152E-02  0.11043175E-02 -0.87822242E-01
  0.96884893E+00  0.78184800E+00  0.98411415E+00
  0.17897182E+00  0.76085042E-01  0.56940845E+00
  0.18002093E+00  0.77176272E+00  0.20214393E+00
  0.72508141E+00  0.69823533E+00  0.20814010E+00
  0.72003856E+00  0.97883862E+00  0.45080406E+00
  0.74230950E+00  0.37985651E+00  0.75627894E+00
  0.41251775E+00  0.12357709E+00  0.62764939E+00
  0.14374020E+00  0.44516236E+00  0.37478866E+00
  0.32963627E+00  0.99310931E+00  0.29954179E+00
  0.56889064E+00  0.78166733E+00  0.60125296E+00
  0.90213187E+00  0.52277757E+00  0.53258148E+00
  0.80333639E-01  0.27019248E-01  0.94770586E+00
  0.45901990E+00  0.61748208E+00  0.87467910E+00
  0.82287614E+00  0.25016295E+00  0.17626866E-01
  0.16133721E+00  0.25226056E+00  0.81574178E+00
  0.22328680E+00  0.46865368E+00  0.62149953E+00
  0.34296196E+00  0.18538365E+00  0.99890241E+00
  0.93584448E+00  0.52414368E+00  0.15114708E+00
  0.48737644E+00  0.83739353E-01  0.16464744E+00
  0.72165946E+00  0.17654299E+00  0.48648961E+00
  0.10228119E+00  0.90326509E+00  0.42668538E+00
  0.69900654E-02  0.84277944E+00  0.60796974E+00
  0.53130227E+00  0.31849203E+00  0.82732527E+00
  0.71191831E+00  0.16558191E+00  0.82890490E+00
  0.39003986E+00  0.68712605E+00  0.64909470E+00
  0.70444659E+00  0.38075413E+00  0.20739428E+00
  0.56525656E+00  0.37627384E-01  0.87740889E+00
  0.36462497E+00  0.76145107E+00  0.62040645E-01
  0.91641893E+00  0.64730463E-01  0.64000382E+00
  0.95873109E-01  0.30739987E+00  0.64495195E-01
  0.91626505E+00  0.61049540E+00  0.78490937E+00
  0.71225435E+00  0.52129628E+00  0.44487137E+00
  0.87869168E+00  0.83479108E-01  0.25508124E+00
  0.57382999E+00  0.27394284E+00  0.42265471E-01
  0.18001113E+00  0.29393497E+00  0.55680085E+00
  0.65509607E+00  0.82534218E+00  0.19414414E-01
  0.72114193E+00  0.38738349E-01  0.56343290E-01
  0.96171152E+00  0.18265195E+00  0.84763087E+00
  0.96709623E+00  0.42465224E+00  0.86813777E+00
  0.54422517E+00  0.61502817E+00  0.27963026E+00
  0.14500097E+00  0.84489443E+00  0.83310680E+00
  0.94346450E+00  0.86210220E+00  0.23859469E+00
  0.11000697E+00  0.12037874E+00  0.24067754E+00
  0.30445398E+00  0.98680873E+00  0.79787374E+00
  0.41780384E+00  0.32526227E+00  0.21387063E+00
  0.47989132E+00  0.21421551E+00  0.36803465E+00
  0.58822446E+00  0.49921740E+00  0.63601779E+00
  0.12270303E+00  0.62749890E+00  0.76666211E+00
  0.83095912E+00  0.76362883E+00  0.42077717E+00
  0.78639600E+00  0.81229222E+00  0.64936141E+00
  0.77779904E+00  0.59216896E+00  0.15891477E-01
  0.25278942E+00  0.45131301E+00  0.55493806E-01
  0.18827595E+00  0.62584911E+00  0.12082146E-01
  0.12119269E+00  0.64691019E+00  0.48952880E+00
  0.94561318E+00  0.27230738E+00  0.50989415E+00
  0.56780644E+00  0.85276882E+00  0.25551324E+00
  0.31173975E+00  0.62804436E+00  0.40886272E+00
  0.54544603E+00  0.51827334E+00  0.76737992E-01
  0.23519247E+00  0.99216967E+00  0.75346848E-01
  0.33360143E+00  0.85299892E+00  0.46447196E+00
  0.54403054E+00  0.27092217E+00  0.61077169E+00
  0.90372927E+00  0.40001549E+00  0.31108225E+00
  0.65963801E+00  0.99819901E-02  0.64094142E+00
  0.45708057E+00  0.84383314E+00  0.86004384E+00
  0.62303101E-01  0.82597786E+00  0.30248920E+00
  0.29274638E+00  0.54785725E+00  0.97068845E+00
  0.17890917E-01  0.65370045E+00  0.69378687E+00
  0.64436037E+00  0.55410175E+00  0.30816385E+00
  0.17264865E+00  0.62122230E+00  0.37364531E+00
  0.25310999E+00  0.68171883E+00  0.10418766E+00
  0.91797320E+00  0.39348403E+00  0.97863330E+00
  0.23277458E+00  0.92761534E+00  0.97747691E+00
  0.81031540E+00  0.60278049E+00  0.14260734E+00
  0.78278690E+00  0.92811042E-01  0.15436036E+00
  0.13158557E+00  0.90250138E+00  0.73794393E+00
  0.32151788E-02  0.29191375E+00  0.78753865E+00
  0.51908093E-01  0.88231336E+00  0.93413610E+00
  0.53440003E+00  0.62540134E+00  0.64201239E+00
  0.78800217E+00  0.78331619E-01  0.35068407E+00
  0.92393417E+00  0.97077801E+00  0.28302354E+00
  0.56930908E+00  0.87877869E+00  0.91900735E+00
  0.29321660E+00  0.84251839E+00  0.81902666E+00
  0.15209849E+00  0.26228305E+00  0.24229502E+00
  0.63243972E+00  0.82364353E+00  0.14548251E+00
  0.53545307E+00  0.37425065E+00  0.98297940E+00
  0.32492514E+00  0.58318216E+00  0.52130211E+00
  0.50505124E+00  0.17869145E+00  0.94472528E+00
  0.68874934E+00  0.51100327E+00  0.59736167E-01
  0.88650177E+00  0.36436773E+00  0.55541400E+00
  0.43558034E+00  0.96104508E+00  0.82598797E+00
  0.78560013E+00  0.40520757E+00  0.37214822E+00
  0.67080266E+00  0.67703829E+00  0.33870950E-02
  0.88276003E+00  0.60112180E+00  0.95142812E+00
  0.23635747E+00  0.57463914E+00  0.72135027E+00
  0.71989667E+00  0.10506345E+00  0.94866114E+00
  0.95627654E+00  0.76208404E+00  0.46930323E+00
  0.42165347E+00  0.58616452E+00  0.36060882E+00
  0.98607247E+00  0.13721527E+00  0.23179707E+00
  0.94125759E-01  0.10522145E+00  0.82669999E+00
  0.85223333E+00  0.39574563E+00  0.18327501E+00
  0.40208552E+00  0.77659266E+00  0.54045857E+00
  0.64337899E-01  0.50378278E+00  0.84311892E+00
  0.25922124E+00  0.90735491E+00  0.18884848E+00
  0.54039139E+00  0.40684669E+00  0.17193511E+00
  0.41541032E+00  0.32319732E+00  0.34842221E+00
  0.89189212E+00  0.90288964E+00  0.70211284E+00
  0.58002874E+00  0.83507108E-02  0.78162082E-01
  0.44486423E+00  0.88671213E+00  0.22064881E+00
  0.75885885E+00  0.91102733E+00  0.15649640E-01
  0.26456241E+00  0.19614715E+00  0.52439978E+00
  0.72209580E-01  0.62569164E+00  0.56136154E-01
  0.31114824E+00  0.77045303E+00  0.37227195E+00
  0.32919874E+00  0.40531070E+00  0.15294848E+00
  0.25830450E-01  0.99079929E+00  0.54728643E+00
  0.88817202E+00  0.15837620E+00  0.50309338E+00
  0.13449838E+00  0.71893695E-01  0.98183519E-01
  0.51856790E+00  0.39462576E+00  0.57836488E+00
  0.79232303E+00  0.70338495E+00  0.68517816E+00
  0.18279833E+00  0.41119925E+00  0.49842302E+00
  0.43919777E+00  0.11599357E+00  0.29667664E+00
  0.68948961E+00  0.29863445E+00  0.87283555E+00
  0.45554728E+00  0.23840821E+00  0.70830966E+00
  0.29843522E+00  0.96542609E+00  0.46013200E+00
  0.75612579E+00  0.80993494E+00  0.49551242E+00
  0.97516964E+00  0.19035226E+00  0.99928044E+00
  0.79405920E+00  0.64204942E+00  0.42593289E+00
  0.46996262E+00  0.23370035E+00  0.13815455E+00
  0.13027091E+00  0.71180442E+00  0.85963006E+00
  0.50828011E-01  0.54427680E+00  0.50130779E+00
  0.82745012E+00  0.81499311E+00  0.30450978E+00
  0.76698261E+00  0.16520560E-01  0.57653591E+00
  0.99510320E+00  0.48066786E+00  0.31135747E+00
  0.97793498E+00  0.29839157E+00  0.36934045E+00
  0.59154080E+00  0.27365069E+00  0.39291240E+00
  0.94433021E+00  0.80924828E+00  0.10745875E+00
  0.35237613E+00  0.68397381E-01  0.92342199E-01
  0.46030137E+00  0.19367422E+00  0.50278395E+00
  0.89403986E+00  0.46735510E+00  0.77934859E+00
  0.12553219E+00  0.44005206E+00  0.10453103E+00
  0.67057653E+00  0.25573696E+00  0.62209042E+00
  0.59612883E+00  0.73498977E+00  0.30464492E+00
  0.46022772E+00  0.75582605E+00  0.75723264E+00
  0.13904156E+00  0.39642734E-01  0.36267809E+00
  0.14605817E+00  0.76254984E+00  0.55569669E+00
  0.66418719E+00  0.86602330E+00  0.67896061E+00
  0.52602757E+00  0.62202108E+00  0.15498316E+00
  0.47016957E+00  0.58155418E+00  0.77584497E-02
  0.46988615E-01  0.24965842E+00  0.57138060E+00
  0.30319999E+00  0.13481393E-01  0.66149807E+00
  0.88329638E+00  0.11511021E+00  0.78485673E+00
  0.67865773E+00  0.26456732E+00  0.91619886E-01
  0.71580446E+00  0.53416238E+00  0.60717728E+00
  0.43281645E+00  0.75551901E+00  0.93853739E+00
  0.62272603E+00  0.95438532E+00  0.32940415E+00
  0.58472106E+00  0.44072702E+00  0.75970921E+00
  0.20099368E+00  0.32852555E+00  0.69285163E+00
  0.29357207E+00  0.97214168E-01  0.86175858E+00
  0.28324245E+00  0.32332190E+00  0.98613649E+00
  0.54502131E+00  0.99062897E+00  0.57381845E+00
  0.66581253E+00  0.76691037E-01  0.74612656E+00
  0.00000000E+00  0.00000000E+00  0.00000000E+00
  0.00000000E+00  0.00000000E+00  0.00000000E+00
  0.00000000E+00  0.00000000E+00  0.00000000E+00
  0.00000000E+00  0.00000000E+00  0.00000000E+00
  0.00000000E+00  0.00000000E+00  0.00000000E+00
  0.00000000E+00  0.00000000E+00  0.00000000E+00
  0.00000000E+00  0.00000000E+00  0.00000000E+00
  0.00000000E+00  0.00000000E+00  0.00000000E+00
  0.00000000E+00  0.00000000E+00  0.00000000E+00
  0.00000000E+00  0.00000000E+00  0.00000000E+00
  0.00000000E+00  0.00000000E+00  0.00000000E+00
  0.00000000E+00  0.00000000E+00  0.00000000E+00
  0.00000000E+00  0.00000000E+00  0.00000000E+00
  0.00000000E+00  0.00000000E+00  0.00000000E+00
  0.00000000E+00  0.00000000E+00  0.00000000E+00
  0.00000000E+00  0.00000000E+00  0.00000000E+00
  0.00000000E+00  0.00000000E+00  0.00000000E+00
  0.00000000E+00  0.00000000E+00  0.00000000E+00
  0.00000000E+00  0.00000000E+00  0.00000000E+00
  0.00000000E+00  0.00000000E+00  0.00000000E+00
  0.00000000E+00  0.00000000E+00  0.00000000E+00
  0.00000000E+00  0.00000000E+00  0.00000000E+00
  0.00000000E+00  0.00000000E+00  0.00000000E+00
  0.00000000E+00  0.00000000E+00  0.00000000E+00
  0.00000000E+00  0.00000000E+00  0.00000000E+00
  0.00000000E+00  0.00000000E+00  0.00000000E+00
  0.00000000E+00  0.00000000E+00  0.00000000E+00
  0.00000000E+00  0.00000000E+00  0.00000000E+00
  0.00000000E+00  0.00000000E+00  0.00000000E+00
  0.00000000E+00  0.00000000E+00  0.00000000E+00
  0.00000000E+00  0.00000000E+00  0.00000000E+00
  0.00000000E+00  0.00000000E+00  0.00000000E+00
  0.00000000E+00  0.00000000E+00  0.00000000E+00
  0.00000000E+00  0.00000000E+00  0.00000000E+00
  0.00000000E+00  0.00000000E+00  0.00000000E+00
  0.00000000E+00  0.00000000E+00  0.00000000E+00
  0.00000000E+00  0.00000000E+00  0.00000000E+00
  0.00000000E+00  0.00000000E+00  0.00000000E+00
  0.00000000E+00  0.00000000E+00  0.00000000E+00
  0.00000000E+00  0.00000000E+00  0.00000000E+00
  0.00000000E+00  0.00000000E+00  0.00000000E+00
  0.00000000E+00  0.00000000E+00  0.00000000E+00
  0.00000000E+00  0.00000000E+00  0.00000000E+00
  0.00000000E+00  0.00000000E+00  0.00000000E+00
  0.00000000E+00  0.00000000E+00  0.00000000E+00
  0.00000000E+00  0.00000000E+00  0.00000000E+00
  0.00000000E+00  0.00000000E+00  0.00000000E+00
  0.00000000E+00  0.00000000E+00  0.00000000E+00
  0.00000000E+00  0.00000000E+00  0.00000000E+00
  0.00000000E+00  0.00000000E+00  0.00000000E+00
  0.00000000E+00  0.00000000E+00  0.00000000E+00
  0.00000000E+00  0.00000000E+00  0.00000000E+00
  0.00000000E+00  0.00000000E+00  0.00000000E+00
  0.00000000E+00  0.00000000E+00  0.00000000E+00
  0.00000000E+00  0.00000000E+00  0.00000000E+00
  0.00000000E+00  0.00000000E+00  0.00000000E+00
  0.00000000E+00  0.00000000E+00  0.00000000E+00
  0.00000000E+00  0.00000000E+00  0.00000000E+00
  0.00000000E+00  0.00000000E+00  0.00000000E+00
  0.00000000E+00  0.00000000E+00  0.00000000E+00
  0.00000000E+00  0.00000000E+00  0.00000000E+00
  0.00000000E+00  0.00000000E+00  0.00000000E+00
  0.00000000E+00  0.00000000E+00  0.00000000E+00
  0.00000000E+00  0.00000000E+00  0.00000000E+00
  0.00000000E+00  0.00000000E+00  0.00000000E+00
  0.00000000E+00  0.00000000E+00  0.00000000E+00
  0.00000000E+00  0.00000000E+00  0.00000000E+00
  0.00000000E+00  0.00000000E+00  0.00000000E+00
  0.00000000E+00  0.00000000E+00  0.00000000E+00
  0.00000000E+00  0.00000000E+00  0.00000000E+00
  0.00000000E+00  0.00000000E+00  0.00000000E+00
  0.00000000E+00  0.00000000E+00  0.00000000E+00
  0.00000000E+00  0.00000000E+00  0.00000000E+00
  0.00000000E+00  0.00000000E+00  0.00000000E+00
  0.00000000E+00  0.00000000E+00  0.00000000E+00
  0.00000000E+00  0.00000000E+00  0.00000000E+00
  0.00000000E+00  0.00000000E+00  0.00000000E+00
  0.00000000E+00  0.00000000E+00  0.00000000E+00
  0.00000000E+00  0.00000000E+00  0.00000000E+00
  0.00000000E+00  0.00000000E+00  0.00000000E+00
  0.00000000E+00  0.00000000E+00  0.00000000E+00
  0.00000000E+00  0.00000000E+00  0.00000000E+00
  0.00000000E+00  0.00000000E+00  0.00000000E+00
  0.00000000E+00  0.00000000E+00  0.00000000E+00