# File generated with Atomsk by jd14363 
   1.00000000000000     
    14.5109800000000000    0.0000000000000000    0.0000000000000000
     0.0000000000000000   14.5109800000000000    0.0000000000000000
     0.0000000000000000    0.0000000000000000   14.5109800000000000
   Ca   C    O 
    50    50   150
Direct
  1.1962114014231628  0.5326001285110876  0.2888348402716800
  0.2004838333180470  1.1143427423377221  0.9287036327124049
  0.2190459664626654  0.8731819123275841  0.6981474965302107
  0.8675559206615678  0.5228993251570645  0.5004717663244540
  0.0705727765793817  0.3722096020509102  0.4656542473653233
  0.9490378316413497 -0.2148609433634425  1.0272079462584340
  0.1175440838541903  0.9039985440814988  0.8579129332764500
  0.4972492266379802  0.2438581383525372  1.4438647249663270
  0.7107862266840214  0.5307762998514682  0.8942667445831238
  0.9230286056112791  1.2928816647071606  1.0235968244566191
  0.3168876045005975  0.6198792169904964  0.0716802410112787
  0.3994129844145976  0.5653667053379343  0.3879593875596929
  0.6322651140604417  0.6868736365231333  0.6713915731988112
  0.6781681108702405  0.5634712144949313  0.2794399833084099
  0.9049225517529920  1.1092260634447377  0.6554217327641021
  0.8860318499236531  0.6208085379944365  0.7841163890779076
  0.2586287198972589  1.2020021800317535  0.4911067192856836
  0.4100667565850851  0.0796570841398771 -0.3045164607426578
  0.5480892252815824  0.7788759786986013  0.4720551240370542
  0.5207940069380771  1.0084615961774008  0.2740283940395299
  0.2779131436580494  1.1969433988642406  0.2420413017556437
 -0.3552990169511384  1.0780494422565541  0.4776064151131905
 -0.1052578090582884  0.0190439811486595  0.2295999645385810
  0.6929317724084030  1.2526527198266575 -0.1687256177199569
  0.0928139213746084  1.0854931486606272  0.1130561195451739
  0.9155348308272903  0.5270697448558611  1.1436821897264144
  0.6841947351468887 -0.1875637700838050  1.2269740426375308
  0.4597347911403425  0.4425235826160034  0.8238448986235620
  0.3246470566968533  0.3311738388316151  1.0395548685174472
  0.4015390438400731  0.7798511570670928  0.8228358534551393
 -0.0592819265549441  0.2512745411776323  0.2861192847847421
  0.8912605711257253  0.3796503722078602  0.6833441475733137
  0.0986843394121205  0.5210517904487953  0.9074265829966425
  0.7334147799717298  0.9139995471025328  0.6488435320417383
  0.1292193030680765  0.7569821422915167  0.2476369988773005
  0.7550006420422070  0.2921943602016036  0.4959201002263588
 -0.3434309967592133 -0.1874772148762185  0.9284385375663869
  0.9270859307574065  0.7721099793617997  0.3871700806468861
  0.3429074835999297  0.7982154287282783  0.5914571646094308
  1.1673859059962197  0.2807532270227713 -0.2633730868484294
  0.5304844294069655  0.4461432465026386  0.5800170617578301
  1.2522795119231789 -0.0357128910235017  0.0705966133960078
  0.2640129093621794  0.5231953572976610  0.5962506650821104
  0.5407099816590888  0.4459459856816739  0.0860596643910181
  1.0359209173144439  0.6774865545177288  0.5939941516489422
  0.4983352674120505  0.7899346123134546  0.0845053432853985
  0.6766629651762738  0.1919019529008943  0.1295680113551908
  0.4846889937880758  0.1052151324772118  1.0268854667046514
 -0.0114359857346226  0.0955941460087262  0.9026423066400461
  0.2305674740550372 -0.0781965044830997 -0.5849197215001439
  0.1609905857750284  0.7448215848430946  0.4830353135559128
  0.8512508358333807  0.1245888827151467  0.4214105377905799
  1.1615034582984010  0.0997541232669321  0.7422638604093775
  0.2860483309563132  0.6396736263671073  0.7524135757029355
  0.8355322726826373  1.1227469098858249  0.0599089597432355
  1.6209367646904111  0.2814067928000910  0.6345097031030706
  0.7285713648819365  0.4903900332606138  0.6330848825395715
  0.8109796449852220  0.4270866670764573  0.3291213705836211
  0.7314712264301018  0.6774122811761421  0.4466760682873557
  1.0019808813299398  0.2589645020975116  0.6065238786476564
  0.5186862247858904 -0.1409746906950335  0.6299730631273711
  0.0447151949790612  0.7097608793261195  0.8154089869455764
  0.0370648129393320  0.4025873659970678  0.2229963599493625
  0.4626582439734148  0.9425294593982873  0.9427998992204099
  1.0552449925732246  0.9036010536485878  0.1919825092128956
  0.2947540963357548  0.0365122959997753  0.5420959619918601
  0.7106899176671733  0.8969900770432718  0.4107104511515040
  0.6204789251529252  0.4298566102594756  0.3920333813261530
  0.4715078970936917  0.2239298230409967  1.1643950907946852
  0.2260931921482098  0.4125025176424552  0.8810914232510098
  0.5626297166447708  0.3241484261188938 -0.0611640264987739
  0.1405553168825393  0.2972321471727993  0.1015868899435455
  0.4812650976967647  0.6992030077076187  0.2470715255273728
  0.7830499210512621  0.7662594791031113  0.8541830543869048
  1.2956231781249172  0.3779299151907711  0.3956919133830674
  0.0626473292679963  0.4490064477758025  0.6395466769110317
  0.3159284737220444 -0.0413398253846474  0.8121648093711573
  0.8319861659242380  0.7245984767000606  1.1868541296313981
  0.7474546078619714  0.4007820349201366  0.1074997030032734
  0.3606491288859277  1.2291895042662024 -0.1340044084085521
  0.0806639242158424  0.6712902042097078  0.0413145201041216
  0.7921508463767674 -0.0156434547724642 -0.1093781283990990
  1.0575859626843154  0.5952948322412754  0.3968144539765334
  0.4204568958960151  0.0823483745946406  0.3930042729014906
  0.6345727522277993  0.9757550827100575  0.0745701301182155
  0.3173304918049216  0.7366825776186177  0.3787270007030381
  0.9218270425833796  0.4583124081727196 -0.1097151731780027
 -0.1331416223513961  0.7321067716614549 -0.4025722008407012
  0.4500350578871632  0.5912604633598192  0.6382245180931372
  0.6724678832278227  0.1917222008606755  0.3214659117421879
 -0.1139209172979108  0.2435347914802301 -0.1667943477502614
  0.3072283689547698 -0.2034701503479370  0.1201975885086264
  0.6256837447348392  0.6475782544092862  1.0600530727046431
 -0.0270351631606076 -0.0864874286338291  0.7111478799505697
  0.5174810161749940  0.6316730230100931  0.8549301550559625
  0.6341523455282156  0.0881653411319175  0.6931153902052686
  1.1100478170240555  1.1017255600002356  0.3016398670115842
  0.3856956994917348  0.4734470987797196  0.1965380021743749
  0.0347687978341185  0.9838270009511300  0.5291690040855119
  0.3744628235807406  0.3112393146422479  0.6130727064830236
  0.2821408207357547  0.6662068496559218  0.3414505252720214
  0.6322517946171362  0.4082394917026165  0.3146340332642377
  0.3698353315368160  0.0773228595775846  0.5474024848115867
  0.9854061785448265  0.4003212283968214 -0.0857400233646041
  0.6218850644578444  0.8948447936012840  0.3790272376888358
  1.0531929369040562  1.0551763657873661  0.2558340872693253
 -0.2086633498239503  0.7800357898433707 -0.3911444364287384
  0.2964724219678002  0.8213574239840614  0.3424880746400712
  0.6223084258266329  0.2222562966273669  0.3948135171622383
 -0.1433557515866188  0.6468957722166619 -0.3658368206373681
  0.6889485966310080  0.6811534135557594  0.5298526727419571
  1.0806349276309397  0.6297994650329031  0.3114020508131742
  0.7502204684574445  0.6848253223314666  1.1993972073910977
  0.7822346792257681  0.8576689904825692  0.3867962355024550
  0.5676992348085990  0.3375963869991826  0.6732730300001373
  0.3961472144849544  0.4579196628466459  0.1079783727560770
  0.7719522376379182  0.4408737696836699  0.5598634250524653
  1.2475932302473058  0.4503495808225533  0.4175039953151802
  0.9276450904122088 -0.2322626635489796  0.5519712567635277
  0.4184849652701124  0.2874530862083662  1.1909620908436631
  0.4621716934846908  0.4633697605742932  0.2529733692971388
  0.0146380910051800  0.5220988988659130  0.6062091285228349
  0.7287579781483370  0.0628577564649726  0.6682297500145414
  0.6871872700185484  0.7189295436873022  0.3884539926977904
  0.4233151648561349  0.2424750573373379  0.5799545003281303
  0.3146148890591369  0.0402853069295364  0.8338768856710013
  0.0105975671227762  0.9446901563887353  0.4595524404001385
  0.8415815341318192  0.8074924459013514  1.1439155031455146
  0.8183159892513209  0.6482972141815895  0.4305748317630717
  0.7407667201228684  0.4856105803958670  0.0897708191767574
  0.7326119629274466  0.0277426929517810 -0.1315247922918550
 -0.1355570270015626  0.5033500441369620 -0.0602746631811487
  1.2096989122744179  0.1432079620805900  0.6867915678857182
  1.7120455122046794  0.2718169656244884  0.6484823928548646
 -0.2288109984878831  0.1596518474390272 -0.0012559322926521
  0.8638822689889151 -0.0205418069565430 -0.0649837316807877
  1.2597288633532351  0.2900218923210035  0.3676706857975315
 -0.1730814376927658  0.1761484439029133 -0.2038556365626525
  0.8440164969102503  1.3275392492669860 -0.1698739967805339
  0.4503426907801811  0.1308217623656419  1.1888612084175993
  0.2033887069101349  0.3665810790815437  0.1117533750309277
  0.5889090324643989  0.6257177014658302  1.1465701013468133
  0.7425121476728718  0.2340251748853173  0.2955758860181820
  1.1033384605734800  0.1439405240049851  0.7943112701756436
 -0.0303491885425216 -0.0573417021356525  0.7945471896682405
  0.9937443313729787  0.9370160531411471  0.1225502354747965
  0.5595329016657360  0.5043355667971391 -0.5892577943663160
  0.6272805903413544  0.3766971806619894  0.4619893058684991
  0.7707103883350727  0.4714923038013268  0.7141309083517621
  0.1808693825766103  0.8121841302117708  0.5363160188288393
  0.5691676122467823  0.0475182805426144  0.6469122388399244
  0.6269895508385102  0.7413114447527436  1.0378581690029249
  0.2847826200932013  1.2628234070638460 -0.1656004985308939
  0.3658919138188298 -0.1554811464645361  0.1674000688658338
  0.0836444623081375  0.4758799905842231  0.2083244630579036
  0.0099381302407833  0.8572387242597487  0.2585159085074527
  0.4298330112099632  0.6790810245042057  0.1811552920790857
  0.1017972274525417 -0.0036300491143568 -0.0177531184376336
  0.7118525192822672  0.9346413175694079  0.4903962122111183
  0.1503288928416864  0.0151218368598523  0.7627208216942842
 -0.1702074526881000  0.3630671277067807  0.0877872266673481
  0.5421230926678974  0.2456756217446015  1.1228146008086131
  0.1617092544904940  0.6125449286395166  0.0163006251068275
  0.9758505529727770  0.6257562160339760  0.4291184883539599
  0.1207815665676356  0.7785396098916177  0.4078649706006573
  0.6181416252887988  0.9187144471789837  0.1532047439923732
  0.4928176323520221  0.6651983902231339  0.6162921879449713
  0.4940585281539996  1.0016403820790074  0.8895695755379897
  0.3870151526288647  0.0101330233959934  0.3483686377537498
  0.8795381862899830  0.2061143868389499  0.4051872742743788
  0.3166141260935761  0.7216570648338326  0.7146534945016043
  1.0888859793114338  0.2666057872242698  0.5761129631064063
  0.7556280304717876  0.7191225644440280  0.7823034862986028
  0.3241101861429798 -0.2237200216026596  0.0309561180521990
  0.2222642074097903  0.6079951799981729  0.6994144131392670
  0.2716429749336458 -0.1015115357996138  0.8612539913887143
  0.3668185545190369  1.1572934163215003  0.3905378252160197
  0.0512068802976755  0.6296664416810659 -0.2117547738802097
  0.9433126112021862  0.4846285175538500  0.8037543207655612
  0.3441434978156193 -0.0682727457624898  0.7356676263678639
  0.6441243146155526  0.1196962705817033  0.2864522105945270
  0.3624885010969000  0.7296432274240882  0.4593202609544376
  0.3079896482719439  0.6411009499281363  0.8405731672031831
  0.4601844488366492 -0.1079689160214461  0.5646188745956150
  1.3876194263297887  0.3689910103608031  0.4176954775131651
  0.2447326351685256  0.7448559126812890  0.1569389383205518
  0.5611393288332682  0.7138647752229444  0.8342473026869760
  1.2073345952590477  1.0823474108244482  0.2947938952410337
  0.4708630916888548  0.6702644764622004  0.3286653984121580
  0.0484777867765063 -0.1226234724350117  0.6794892231019427
 -0.0861099828186267 -0.0667819344753459  0.6401754594634341
  0.2887556088903377  0.2946259036734268  0.6083879594811760
  0.5526950578259987  0.7545182085831617  0.2306887221950324
  0.3055387597503846  0.5094523381377966  0.2194794392762005
  0.2257434525716363  0.0593113309955324  0.4794638138285002
  0.0002398999162835  0.6314580715554423  0.0275882161234092
  0.1405641174228413  0.4335198673084839  0.5917312267376854
  0.4804592648169126 -0.1548041964817447  0.7081168241389239
  0.3698392150485258  1.1917864667464966  0.9570362239681645
  1.1520909316448862  0.9203385181442891  0.1830347541246001
  0.0411805303932889  0.4072411182754886  0.7039049414473992
  0.3111567873463549  0.4169068398104720  0.9106636389608455
  0.5544969238683962  0.5536851046661223  0.8358975802487874
  0.6417295817618306  0.3628447821538212 -0.0976837525177217
  0.7657346556805023  0.4830579129088008  0.3802561155746421
  0.7842807272017513  0.1298361814607110  0.4873447350189711
  0.4787079394747164  0.8543511031378376  0.9162311595739258
 -0.0277428160258211  0.7446696043599219  0.8502995597426883
  0.5041150260496539  0.0821812988522711  0.4142206712484448
 -0.0293901757716967  0.2416514580882151  0.6877371254911527
  0.1272813025277269 -0.2459702162461853  0.8082074954878009
  0.0618416641026043  1.0499135523228389  0.5666571564850156
  0.0764485580538568  1.1700077848654102  0.3424861160766237
  0.8068304825138549  1.0742015578263433  0.1244447422588693
  0.9546707946152716  0.3242573688056056  0.5632998832923635
  0.9285849834474822  0.1401326409125292  0.0554037258603259
  0.2279895918470479  1.1198709973068901  1.0754956214699547
  0.8221093321622994  0.7219514165535482  0.9182197308426933
  0.8535833325687946  0.3634254154763066  0.3748915260677623
 -0.0254941406901430  0.3828206839414328  0.1608488002673107
  0.7983809338614181  0.4538662370931441  0.2419065329949600
  0.0757574130242744  0.3584215964147766  0.2959239004642724
  0.0842232778753163  0.7531650033084814  0.0795539925170710
  0.4317422807723689  1.2098099890177048 -0.1927730014158322
  1.6005075193479048  0.2233159651710782  0.5693855081672822
  0.2760395189207339 -0.0533882957531023  0.5736021483999608
  0.6589945667200104  0.5402716685412458  0.6313145405511529
  0.1980660066922195  0.4170962817620050  0.7924375003726710
  0.6330792539321354  0.1419685298967126  0.7686403741053923
  0.4885392202207250  0.3741763259314827  0.9501614802813579
  0.0931113915821116  0.2775676440422769  0.0221427220723453
  0.4261782614002764  0.5525192032649153  0.7118461108354780
  0.6502154653679730  0.9341631159753814  0.0033227905479554
  0.5711634854481844  0.2396463599802341 -0.0723213382266444
  0.4067187784735998  0.3830532321583774  0.6512893623822434
 -0.1307501903895356  1.0532463280799065  0.3775009968089454
  1.0977301307279610  0.5343011977536055  0.4341319960948648
  0.6207314459453520  1.0662624634625932  0.0798835129618130
  0.4584274374130180  0.6369707406878079  0.9183413119260502
  0.4195547713122394  0.5474932653812554  0.5550384058861831
  0.7634246587995674  0.8549491616878764  0.8352212428269380
  0.1375337683657048  0.2252633588704337  0.1648662229155604
  0.8976184436692014  0.6765456695394380  1.2251553316745016
  0.6648831736382452  0.3627999575358755  0.1040303863012395
  0.5999455662940784 -0.1764031609627890  0.6103953150076183
  0.1867853072818805  0.6666562147491338  0.5039298096409024
  0.4212604386049904  0.9542943685933217  1.0201256681407902
  0.6191789275302202  0.5923907069511000  0.9905645415044422
  0.1751315978533616  0.3907582993796321  0.9439029556765718
  0.9598757458234393  0.2407539993416710 -0.1185522007704600
 
 -0.15856886E-02  0.49900060E-02  0.85083220E-02
 -0.63402301E-02  0.13080401E-01 -0.34724441E-02
 -0.59427597E-02  0.42014300E-02  0.57360795E-02
 -0.32458898E-02 -0.95615261E-02 -0.63829564E-02
  0.73777358E-02 -0.44201946E-02 -0.40216146E-02
  0.71860047E-02  0.39943645E-02 -0.10403598E-03
 -0.25980438E-02 -0.62711511E-02 -0.15686242E-02
  0.24817100E-02 -0.89870776E-02 -0.58089537E-03
 -0.39793875E-02 -0.12343511E-01 -0.66264902E-02
  0.72845583E-02 -0.52928621E-03 -0.13452645E-01
 -0.11004799E-01  0.92585181E-04 -0.97610539E-02
 -0.10112945E-01  0.10514555E-02  0.67745740E-02
 -0.54232418E-03  0.36588573E-02 -0.58898822E-02
  0.12283439E-01  0.46655979E-02  0.43149907E-02
  0.27793981E-02  0.13425771E-02 -0.15762562E-02
  0.45095480E-02  0.71053265E-03 -0.61772077E-02
  0.35832789E-02  0.10467507E-02  0.81966915E-02
 -0.29670516E-02 -0.23296752E-02 -0.11369053E-02
 -0.81964542E-02 -0.12847846E-03  0.15159551E-02
  0.14897735E-02  0.34846420E-02 -0.14191066E-01
 -0.58124914E-02 -0.58586464E-02 -0.14181842E-01
  0.62256210E-02 -0.47098237E-02  0.10674521E-01
  0.56982257E-02  0.11748614E-02  0.15181151E-02
 -0.81102797E-02 -0.96307829E-02  0.29670082E-02
 -0.27101970E-02 -0.80666622E-02  0.59491037E-02
 -0.22624260E-03 -0.84161466E-02  0.29645852E-02
  0.42372298E-02  0.39333686E-02  0.87481236E-02
  0.13470999E-02  0.13564214E-02  0.93035751E-02
  0.63596066E-02 -0.18830482E-03  0.75881464E-03
 -0.37147998E-02  0.37786520E-02  0.16326778E-02
 -0.34191675E-02  0.21070118E-02  0.20358283E-02
 -0.21208948E-02 -0.38294368E-02  0.49940427E-02
  0.72928163E-02 -0.12595512E-02 -0.29243191E-02
  0.56294579E-02  0.37706680E-02 -0.15221375E-02
 -0.37982676E-02  0.63421155E-02  0.41095336E-02
 -0.61038774E-02  0.29031356E-02 -0.24672611E-02
 -0.10566837E-02  0.18188464E-01 -0.10266090E-01
  0.36715575E-02  0.37349281E-02  0.38578491E-02
  0.42112664E-02  0.16706624E-02  0.65311347E-02
  0.29728158E-02  0.54162077E-02  0.41214004E-02
 -0.85478437E-03 -0.33300923E-02 -0.19833073E-02
  0.82033492E-02 -0.35077557E-02 -0.18849483E-02
 -0.25443755E-03 -0.85194729E-03 -0.36889662E-02
 -0.10151344E-01  0.57563615E-04 -0.11106402E-02
 -0.55651447E-03 -0.85613793E-02  0.64307278E-02
  0.98530293E-02  0.68495451E-02 -0.54146527E-02
 -0.84614021E-02  0.96373004E-02  0.48987245E-02
  0.36895134E-03 -0.32330786E-02  0.83471192E-02
 -0.38125082E-02  0.49974276E-02  0.90040872E-03
 -0.10758185E-01  0.63123937E-03  0.52780363E-02
  0.54124827E-02 -0.13511396E-01 -0.61872368E-02
  0.17721641E-02 -0.52730949E-02  0.46847399E-02
  0.62199977E-02  0.58711900E-02  0.13956838E-01
 -0.10332270E-01 -0.62634854E-02  0.12517024E-01
  0.81786606E-02  0.13159786E-01  0.40967481E-02
  0.19654566E-01 -0.13741730E-02  0.11255074E-01
  0.28130579E-02 -0.45037938E-02  0.20039975E-01
 -0.67646065E-02 -0.14060514E-03 -0.13664523E-01
 -0.40132920E-03  0.38797598E-02  0.15996389E-01
 -0.17924469E-01 -0.11302334E-01  0.14988144E-01
 -0.12994859E-01 -0.17657352E-01  0.19305337E-01
  0.14376885E-01  0.10633168E-01  0.94667718E-02
 -0.10821193E-01  0.11462999E-01  0.63304407E-02
  0.25326827E-02  0.15130684E-01 -0.18093578E-01
 -0.20640224E-01  0.88605374E-02 -0.21959666E-01
 -0.82794719E-03  0.58957006E-02 -0.16086117E-01
  0.90690225E-02  0.70764613E-02  0.12825487E-01
 -0.12604492E-01  0.15908735E-02 -0.16213199E-02
  0.89456503E-02 -0.10894852E-01 -0.91095947E-02
 -0.12210322E-01 -0.97580744E-02  0.19836890E-01
  0.93197608E-02 -0.17792362E-01  0.11366646E-01
 -0.90497134E-02  0.18030575E-01 -0.14578224E-01
 -0.93189108E-02 -0.31949337E-01 -0.10070399E-01
  0.62906726E-02  0.30413997E-02 -0.92999647E-02
 -0.13168998E-01 -0.26633097E-02  0.91575822E-02
  0.13868380E-01  0.32381243E-01  0.84626915E-03
  0.29275222E-02  0.99281419E-02  0.11198097E-01
 -0.11136333E-01 -0.11100778E-01  0.16369196E-01
 -0.18745772E-01  0.32849586E-02 -0.19805225E-01
  0.55447277E-02  0.10642766E-01 -0.28649744E-01
  0.37604310E-02  0.36880941E-02  0.32565899E-02
  0.11716885E-01  0.42583974E-02  0.32756471E-02
  0.13779690E-01 -0.19112327E-02  0.23197496E-01
 -0.21167741E-02  0.15284646E-01  0.17170458E-02
  0.18909461E-01  0.47558119E-02 -0.19459248E-01
  0.28169824E-02 -0.97682344E-03 -0.13694371E-01
  0.18591528E-02 -0.23095047E-03 -0.96025944E-02
 -0.14988764E-01 -0.17838725E-01 -0.20766899E-01
 -0.22480604E-02  0.11995619E-01 -0.25569240E-01
  0.25635293E-02  0.56501758E-02  0.22714396E-01
 -0.36618096E-02 -0.32147591E-02  0.12071171E-01
  0.45370842E-02 -0.20403932E-01  0.10343021E-01
 -0.52204417E-02 -0.21142682E-01  0.24940022E-01
  0.12520495E-01  0.15524667E-01 -0.22962107E-01
  0.19539838E-01 -0.12913766E-02  0.21577654E-01
  0.56538387E-02  0.65169789E-02 -0.28528059E-02
  0.62523814E-02 -0.11033028E-01  0.10145606E-01
  0.65736086E-02 -0.13470821E-01  0.23996540E-01
  0.58286635E-02 -0.56168847E-03 -0.11208876E-01
 -0.88348107E-02  0.74591353E-02 -0.23145804E-01
  0.72118410E-02 -0.42265053E-02 -0.20766346E-02
 -0.96411205E-03  0.18772035E-02 -0.14135178E-01
  0.23904168E-01  0.57331346E-02  0.33646124E-02
  0.36014141E-02 -0.56751496E-02  0.11643996E-02
  0.44484624E-02  0.10829109E-01 -0.13036359E-01
  0.87093225E-02  0.43287043E-02  0.19302995E-02
  0.15069680E-01 -0.39178616E-02 -0.22748809E-02
 -0.19021635E-01 -0.20166611E-01 -0.54082892E-03
 -0.18270364E-01 -0.23713162E-01 -0.15200207E-02
 -0.19756881E-01  0.89991653E-02 -0.11344607E-01
  0.92205151E-02 -0.25194771E-02  0.32437987E-02
 -0.24598044E-01  0.38999728E-02  0.11368034E-03
 -0.10897485E-02  0.51539955E-02 -0.51583894E-02
  0.24218489E-02 -0.25536512E-01 -0.62527218E-02
 -0.52634710E-02 -0.32965253E-02 -0.50207106E-02
 -0.12583244E-01 -0.59333363E-02  0.13688113E-01
 -0.11614938E-01  0.11649115E-01 -0.37886984E-02
  0.14037635E-01 -0.81814133E-02 -0.50538374E-02
 -0.77138163E-02 -0.36455941E-02 -0.76510759E-02
 -0.63277042E-02  0.11610730E-01 -0.10588301E-01
 -0.45789181E-02  0.10985414E-01 -0.20676508E-01
 -0.86237201E-02  0.34546336E-02  0.57274390E-02
  0.21907626E-01 -0.41964155E-03  0.28133116E-02
  0.22965822E-02  0.30327707E-02  0.20220532E-02
 -0.83099370E-02 -0.41771341E-02  0.17077529E-02
 -0.11211237E-01 -0.70514911E-02 -0.13390134E-01
 -0.11165632E-02 -0.71241993E-02 -0.36502155E-02
 -0.14826655E-01 -0.16321865E-01 -0.93318202E-02
 -0.13121285E-01 -0.22719066E-01 -0.47862301E-02
 -0.14781694E-01  0.12538742E-01  0.69763141E-02
  0.15601833E-01  0.27741362E-03 -0.44915648E-02
 -0.16647992E-02 -0.27442423E-04 -0.16902902E-01
  0.26974232E-02  0.15744459E-01  0.14698391E-01
  0.17356251E-02  0.26868063E-02  0.23865831E-02
  0.30132453E-02  0.13369369E-02 -0.91868090E-03
  0.75236761E-02 -0.17246750E-01 -0.30073075E-04
  0.24989786E-02 -0.47830886E-03  0.47330215E-03
  0.15234099E-01 -0.30802230E-02  0.36621947E-02
  0.56910350E-02  0.95477314E-02 -0.17917248E-01
 -0.18233725E-01 -0.46918751E-02 -0.10654090E-02
 -0.35267768E-02 -0.97155600E-03 -0.95245547E-02
 -0.14733721E-01  0.17842252E-01  0.15370688E-01
 -0.12112855E-01  0.42305554E-03  0.24785951E-02
  0.67443752E-02 -0.77850794E-02 -0.39352384E-02
 -0.79116216E-02 -0.48520825E-02 -0.98984128E-02
  0.22644610E-02  0.12886731E-01 -0.14690439E-02
 -0.30838211E-02 -0.67272909E-02 -0.33680026E-02
 -0.57707973E-02 -0.29988703E-02 -0.29201671E-04
  0.16158406E-01  0.89913405E-02  0.70736123E-02
  0.16962896E-01  0.21944252E-01  0.11117782E-01
  0.19761728E-01  0.13913909E-02 -0.38912181E-02
 -0.72604357E-03 -0.81485986E-02  0.18248551E-01
  0.63965905E-02  0.37299993E-02 -0.12546962E-02
 -0.44970669E-03  0.18150738E-01  0.77131220E-04
 -0.13242739E-03 -0.26051783E-01 -0.52390386E-02
  0.61974509E-02  0.18212703E-01 -0.48507849E-02
  0.45805478E-02 -0.97158913E-02 -0.11172221E-01
  0.20258643E-01  0.12286626E-03  0.22164885E-02
 -0.44970384E-02  0.14754265E-01  0.12746460E-01
  0.62465336E-02  0.19214157E-02  0.54885390E-02
 -0.98840208E-02  0.18852574E-01 -0.43588015E-02
 -0.16745997E-01  0.25235697E-02  0.40089568E-02
 -0.61092285E-02  0.70705438E-02  0.10500594E-01
 -0.12024246E-01 -0.18056195E-01  0.50365126E-02
  0.10789681E-01 -0.30044250E-02  0.30471815E-02
  0.13699222E-01 -0.68189634E-02  0.10365460E-01
 -0.55208647E-02 -0.11252192E-01 -0.85711333E-02
  0.50619396E-03 -0.11664223E-01 -0.29143823E-02
  0.97148105E-02 -0.15067703E-01  0.26306341E-03
 -0.15884423E-01 -0.43526601E-02  0.41750095E-02
  0.97114655E-03  0.18650867E-01  0.14833408E-02
  0.48508559E-02  0.17980243E-01 -0.31182779E-02
  0.86220784E-03  0.44277241E-02 -0.10982274E-01
 -0.45967719E-02  0.23478453E-02  0.48123662E-02
  0.33825990E-02  0.35966825E-02  0.58568443E-02
 -0.80424705E-02  0.65593830E-02 -0.18478443E-01
 -0.20880681E-01  0.10753858E-01  0.11907565E-01
  0.10296932E-01 -0.15970377E-01 -0.26797945E-01
 -0.86926871E-02  0.16356248E-01 -0.10317762E-01
  0.23334341E-01 -0.87334098E-02 -0.75526247E-02
  0.63002401E-03 -0.16888499E-02  0.27527127E-02
 -0.20718241E-02  0.12478609E-01 -0.23318496E-02
 -0.11245791E-01 -0.12941306E-01  0.31203677E-02
  0.28865445E-02 -0.14290697E-02 -0.69682165E-02
 -0.11687057E-01 -0.48425889E-03  0.73057375E-02
 -0.91470411E-02  0.19846496E-01  0.75886976E-02
  0.60488648E-02 -0.76951760E-02 -0.13882546E-01
  0.11818925E-01  0.12142566E-02  0.13857509E-02
 -0.28067619E-01  0.17690725E-01 -0.22263055E-02
  0.38287937E-03 -0.25847306E-01  0.40397733E-02
  0.16901603E-02 -0.57177462E-03 -0.63057031E-02
  0.32385561E-02 -0.55966879E-02  0.52012152E-02
  0.32725975E-02 -0.99167821E-02 -0.43651593E-02
 -0.56959314E-03 -0.16470389E-01  0.24031932E-02
 -0.10216725E-01  0.49407269E-02  0.27135953E-02
 -0.23118972E-01  0.16400235E-02  0.23451396E-02
  0.87018822E-02  0.24763822E-02 -0.22452218E-01
  0.20581201E-02  0.52896523E-02 -0.58422221E-02
  0.34103037E-02  0.83051950E-02  0.93721986E-02
 -0.10289339E-01  0.11493349E-02  0.13916909E-01
  0.95929921E-03  0.16215238E-01 -0.37562526E-02
 -0.39795076E-02  0.31983479E-03 -0.42698587E-03
  0.49629594E-02 -0.83571071E-02  0.45277097E-04
 -0.12125501E-01  0.39642585E-03  0.12415741E-02
  0.71012317E-02 -0.53191681E-02 -0.28969129E-02
 -0.65160313E-02  0.80272826E-02  0.25503377E-02
 -0.26677991E-02  0.20522090E-02  0.43114648E-02
 -0.10877914E-01 -0.11319234E-01 -0.23751583E-02
  0.62290153E-02  0.40552225E-02  0.26283645E-01
  0.84285288E-02 -0.30264750E-02 -0.11476797E-02
  0.83300060E-02  0.11380541E-01  0.18656319E-01
 -0.28708299E-03 -0.46589596E-02  0.28502499E-02
 -0.16792189E-01  0.14448711E-02  0.59109921E-02
  0.59756769E-02  0.15023292E-03 -0.11604024E-01
  0.12310535E-01 -0.11135587E-01 -0.16122830E-01
 -0.25482831E-02  0.65186922E-02  0.22116403E-02
  0.79718043E-02 -0.22725993E-02  0.18311647E-01
  0.17920305E-01  0.51498911E-02  0.14461060E-01
  0.13443698E-01  0.37628700E-02  0.23391838E-02
  0.17237651E-01  0.23408571E-01 -0.11190304E-01
  0.37766458E-02  0.39330764E-02 -0.14159130E-01
  0.75438797E-02 -0.31109112E-01  0.51039464E-02
 -0.12524777E-01  0.17830521E-02 -0.55809832E-02
 -0.30173823E-02 -0.22268896E-02 -0.85635228E-03
  0.37547839E-02  0.29395737E-04 -0.78682970E-02
  0.87599015E-02  0.47617522E-02  0.77335699E-02
  0.63940958E-02 -0.14717740E-01 -0.62635569E-02
 -0.83762336E-02  0.28214010E-02  0.29602376E-02
  0.47384139E-02 -0.37007434E-02  0.18689726E-02
 -0.14584721E-02 -0.12378333E-01  0.29075597E-02
  0.21473003E-01 -0.14570303E-01  0.12391457E-01
 -0.73794194E-02  0.12285243E-01  0.12879831E-01
 -0.31429541E-02 -0.11456522E-01 -0.16544284E-01
  0.25085309E-01  0.12488273E-01 -0.16979681E-01
  0.50657144E-02 -0.16674320E-01 -0.10742301E-02
  0.18762238E-01  0.15758923E-02  0.34377375E-02
  0.30275048E-02 -0.50024322E-02 -0.93226745E-02
 -0.21237351E-01  0.45759467E-02  0.16476126E-02
  0.15251610E-01  0.38463371E-02  0.10743525E-01
 -0.75106740E-02  0.74039704E-02  0.12418133E-01
 -0.28955110E-03 -0.28832749E-02 -0.55250958E-02
 -0.21173682E-03 -0.60410218E-02 -0.37229138E-02
  0.66791635E-02  0.11585110E-01 -0.10848268E-01
  0.19207335E-02 -0.12189072E-01 -0.29552196E-02
  0.78048037E-02 -0.61023442E-02  0.18273845E-02
  0.59955420E-02 -0.87849163E-02  0.16396309E-01
  0.32693751E-02 -0.23557714E-02  0.62830723E-02
 -0.19303319E-01  0.11058849E-01 -0.25391248E-03
 -0.39548481E-03  0.59818588E-02  0.12391109E-01
 -0.11459100E-01  0.40196987E-02  0.60131318E-02
 
           1
   1.00000000000000     
  0.21372871E+01 -0.26543649E-02 -0.25314551E-02  0.21398800E+01
  0.19610213E+00  0.53294401E+00  0.28942118E+00
  0.20004691E+00  0.11524416E+00  0.92846434E+00
  0.21863643E+00  0.87347145E+00  0.69854279E+00
  0.86733224E+00  0.52224041E+00  0.50003190E+00
  0.71081201E-01  0.37190499E+00  0.46537710E+00
  0.94953304E+00  0.78541432E+00  0.27200777E-01
  0.11736504E+00  0.90356638E+00  0.85780483E+00
  0.49742025E+00  0.24323881E+00  0.44382469E+00
  0.71051199E+00  0.52992567E+00  0.89381009E+00
  0.92353061E+00  0.29284519E+00  0.22669758E-01
  0.31612923E+00  0.61988560E+00  0.71007574E-01
  0.39871607E+00  0.56543916E+00  0.38842625E+00
  0.63222774E+00  0.68712578E+00  0.67098568E+00
  0.67901460E+00  0.56379274E+00  0.27973734E+00
  0.90511409E+00  0.10931858E+00  0.65531311E+00
  0.88634262E+00  0.62085750E+00  0.78369070E+00
  0.25887566E+00  0.20207432E+00  0.49167158E+00
  0.40986229E+00  0.79496538E-01  0.69540519E+00
  0.54752438E+00  0.77886712E+00  0.47215959E+00
  0.52089667E+00  0.87017345E-02  0.27305044E+00
  0.27751259E+00  0.19653966E+00  0.24106398E+00
  0.64513001E+00  0.77724873E-01  0.47834203E+00
  0.89513487E+00  0.19124945E-01  0.22970458E+00
  0.69237287E+00  0.25198903E+00  0.83147885E+00
  0.92627153E-01  0.84937248E-01  0.11346609E+00
  0.91551924E+00  0.52648976E+00  0.14388649E+00
  0.68448674E+00  0.81270729E+00  0.22757690E+00
  0.45982762E+00  0.44261706E+00  0.82448604E+00
  0.32508532E+00  0.33116086E+00  0.39607161E-01
  0.40128304E+00  0.78011156E+00  0.82294837E+00
  0.94048245E+00  0.25141974E+00  0.28625958E+00
  0.89111441E+00  0.37938647E+00  0.68368830E+00
  0.99186912E-01  0.52096499E+00  0.90722506E+00
  0.73380272E+00  0.91425940E+00  0.64873864E+00
  0.12895755E+00  0.75741920E+00  0.24792020E+00
  0.75458000E+00  0.29239442E+00  0.49575007E+00
  0.65649618E+00  0.81377621E+00  0.92773107E+00
  0.92733895E+00  0.77236737E+00  0.38743594E+00
  0.34319770E+00  0.79833056E+00  0.59190725E+00
  0.16759077E+00  0.28112648E+00  0.73691093E+00
  0.53042552E+00  0.44591376E+00  0.57988039E+00
  0.25284483E+00  0.96404538E+00  0.70466715E-01