# File generated with Atomsk by jd14363 
   1.0000000000000000     
    12.2899999999999991    0.0000000000000000    0.0000000000000000
     0.0000000000000000   12.2899999999999991    0.0000000000000000
     0.0000000000000000    0.0000000000000000   12.2899999999999991
   Mg   Si   O 
    32    32    96
Direct
  0.2853258484432380  0.8472928674354684  0.7507650893377544
  0.7353389825048425  0.0235687729009007  0.1073139151406937
  0.4136835597326456  0.5507664417962347  0.7623925149192473
  0.7107199785667017  0.2407312817770082  0.4139461567080572
  0.5311366949581133  0.9412296912856075  0.9745212273848453
  0.9255457641661612  0.6709065393621174  0.4045594896705340
  0.5395315663016856  0.4382155193037863  0.0615723689073566
  0.9189330371899680  0.8410111235193605  0.8927111156321872
  0.9009025672621284  0.9157322911098311  0.1607431411563264
  0.4365411704958647  0.0279055865380965  0.2564876251079162
  0.5018929624361070  0.6533026534008159  0.3437374904094845
  0.3348761905019585  0.3567389895672917  0.5699558810754578
  0.7980628694394938  0.3728920532063428  0.7629498327733713
  0.6858291844241819  0.7367765562852979  0.9620909189249114
  0.3650010368921681  0.5957203831756265  0.1305643319945908
  0.9207437826947822  0.2297228023946731  0.9317941317350406
  0.1724366324053182  0.3785444885120315  0.9819803691822303
  0.4201568972629025  0.3319370414360635  0.3703316945600931
  0.1297830319120186  0.2509230656498818  0.7821377026076506
  0.8613007606317765  0.0151683886939826  0.5061610045136974
  0.1254483651824202  0.7520901474545901  0.1389156355073986
  0.2505064335727250  0.6762859560959077  0.6201716691077727
  0.0860673045364979  0.3821772018776202  0.3471413036694098
  0.7304195338970478  0.4996353640601336  0.4687388881909329
  0.1379325972123366  0.8193744955722959  0.5177920199056475
  0.9607091171274691  0.1877125114600389  0.3068418955900474
  0.1816920614166378  0.6271535010402818  0.9081347806337116
  0.6510819649571067  0.8146060711191665  0.7178350989031073
  0.5099925752201829  0.1138891313106465  0.4999760901276105
  0.3515313321791787  0.0938775567258454  0.9444627515025869
  0.9345800951698009  0.5870352946263233  0.6439293253198705
  0.6420170871705364  0.2451804067601052  0.8944934242876029
  0.8751551465190435  0.6642457043907133  0.1251704770698558
  0.5614967948825840  0.8187145899009498  0.1945280232006478
  0.2592607619483138  0.1046829289160419  0.6346169062173570
  0.0683582355270036  0.9720481303195866  0.7095954530634327
  0.7629561256127092  0.2873341027107938  0.1644267523159934
  0.8214274876702494  0.6231973704030905  0.8292527710861245
  0.7536320022058985  0.7731265295891658  0.5150426146450708
  0.1343698887303037  0.9507571513825205  0.9419091353395859
  0.8005411916272185  0.4452414576508510  0.9968219536240597
  0.9059298146351870  0.1149029293775922  0.7382126350767710
  0.7952421715473033  0.0130656073143689  0.9374884972225710
  0.4876508458647643  0.6759804346405625  0.5516919224068417
  0.6928078671088139  0.5740467454056296  0.2541536883258318
  0.4791077713252643  0.0771478737726188  0.7705681660604380
  0.1093043270613750  0.5299916685444118  0.1401543465531525
  0.7051498938275499  0.9306643248187348  0.3391367940269761
  0.9515692228426836  0.3804919087606358  0.5221505907436776
  0.3178335264378430  0.3300358571113119  0.1431244772152718
  0.2468495021640983  0.5917191389124056  0.3694261445101605
  0.5444229249923822  0.4379471180385061  0.5649407049162798
  0.1191946884409645  0.1630942020231747  0.0550442655970619
  0.4724744505836458  0.6681169104021328  0.9356941965628807
  0.3012249626784752  0.1713181733394288  0.4122266441817338
  0.2399727320033334  0.9576687869321915  0.3222839062682936
  0.3247358021161565  0.8666345743611092  0.1034422868163953
  0.3900205091660261  0.8621280064637247  0.5095251065565948
  0.0607625337393089  0.7122996139420767  0.7604854009465254
  0.6735300019776969  0.1866225155873166  0.6477217986130456
  0.1085556043885172  0.4586993391298239  0.7477893619447618
  0.5302277282767019  0.1997600287548318  0.1270599412993904
  0.3990728842373354  0.2974049352050203  0.8215749727473147
  0.0343645316448515  0.9267057161109610  0.3772185435239969
  0.5750689773945241  0.5149454765041172  0.2441560823133797
  0.9670121038809141  0.4894824305878421  0.4441568358156206
  0.6084972220844775  0.7140641228238381  0.2771059271145081
  0.4943335525901432  0.7909409164485816  0.9347825415190681
  0.0497848016964018  0.0154647863920043  0.8405626238816031
  0.3003855974315436  0.2475987668136725  0.8903457519161091
  0.8504090189965350  0.7623377369467592  0.0373012278850886
  0.9402563938340155  0.2384307553607934  0.7578009586966972
  0.0602627444503969  0.8424962651448433  0.6830671694756693
  0.2331105934905935  0.9458021236774412  0.8636554586073547
  0.2020138558828010  0.4832806521419845  0.4212122323988761
  0.1532315011504892  0.9632745912496256  0.4195715528730933
  0.5192655981585892  0.3404982399941366  0.4704625027711464
  0.3627998016678870  0.9358447610945890  0.3950282809036574
  0.8212986920313889  0.3648291195706408  0.5520615769336475
  0.6967869218628148  0.0094427382219727  0.4345087484380338
  0.6271040488663063  0.7626969187518379  0.5523392754638120
  0.5754608959309075  0.2825842160588201  0.0347263429596949
  0.2336930356616058  0.4826099959069112  0.7090642559879220
  0.9288924203255833  0.7021659689864486  0.2399296208447892
  0.7552736215309297  0.8114251377845634  0.3788179138156353
  0.2350703375920038  0.8815413178130124  0.2031346029209722
  0.7846267825584052  0.9843779655448713  0.2370952477707757
  0.7233708862957835  0.3906469631850766  0.8923960638263946
  0.6413655225156268  0.1893552415908644  0.5247666203261905
  0.2345520165003886  0.6994021490802438  0.4539370144521877
  0.7300003288746589  0.7086398862997775  0.7987288315289938
  0.8089947382599069  0.6373182456173829  0.5142284519029269
  0.4495300093617585  0.7617086137396352  0.4611150142011942
  0.0357429941557119  0.1651628533035663  0.1552787529324924
  0.4016216266356636  0.1958415957407984  0.1201831672203931
  0.3422400966338076  0.5874932444657700  0.2822632480050588
  0.1509089287930312  0.6142318084152022  0.2325131053866274
  0.7735261636425970  0.9034343918586473  0.8648531597120264
  0.9030670035704107  0.0011974586950072  0.0146962698509219
  0.8402209754485381  0.5255687917200954  0.7345251620800629
  0.9122407846141891  0.7105405429384302  0.7805318587162356
  0.5588917148302218  0.6110410377393826  0.8763465757685744
  0.8113032464351148  0.5774556856730819  0.9545338488190400
  0.4333381759739827  0.4686033208965311  0.6357079018501873
  0.1790438614011300  0.2002198640612698  0.6508594242068574
  0.0321055512243615  0.4279837907084393  0.6355005831059832
  0.3552461872037714  0.0706350546779347  0.7122806457768132
  0.4152034065296814  0.1623531338666821  0.3619461793611090
  0.2799293688047570  0.0941440815448224  0.5079881513791215
  0.0618143012801196  0.8835554042873719  0.0167338142803399
  0.6348925221795730  0.8413145174956741  0.0865531042943993
  0.7129795309671886  0.4119970121568778  0.0830468007212402
  0.8159301056215503  0.2733388246324222  0.2846069669570125
  0.5065460691952067  0.9638320193853019  0.8081441109557235
  0.9944323195324516  0.0562324607030166  0.6377342654568919
  0.4730236078509129  0.9406193841567174  0.5625593137656404
  0.1723016917963815  0.7589878303407110  0.8125422835518177
  0.0629031514315478  0.4215717539519839  0.1972787723830750
  0.0647445706668663  0.5636494255629576  0.8340742323430086
  0.0041330142154952  0.8160251779906271  0.4577926969295749
  0.4773466582363097  0.4002470786221869  0.8414946799340329
  0.6391997989493505  0.2430162735870258  0.2233962759393227
  0.6756238034404298  0.0857460650206036  0.9576894392400773
  0.9248703484292164  0.3916897852414703  0.0331557810067107
  0.3947014209778748  0.6859682662530409  0.6540132858358144
  0.4753673631270168  0.1629118390648571  0.8801664506332371
  0.2913615808688195  0.8399946996956963  0.5959473888015600
  0.2029967453617068  0.9826720731193661  0.6733255144939816
  0.3983619706323159  0.4011958625775605  0.0817426768436258
  0.0878981993128463  0.2053172364715480  0.9306656385837252
  0.3573225573095975  0.6538021891577569  0.8721482232319406
  0.9643301229789457  0.0382376049411715  0.4057937002139688
  0.8032776205020729  0.1018782500437729  0.6433924576672173
  0.5843209676993157  0.9369583219249044  0.2874296569263062
  0.4053534867977817  0.2556076900874054  0.6916292362090167
  0.8203987587521235  0.2029813116693687  0.0880838214688049
  0.0372939893936958  0.9019931298724799  0.2543133404033459
  0.8576229360021641  0.0901299848269768  0.8464970249125051
  0.2414651975502068  0.0810069904884906  0.2755731903415753
  0.4321789311471209  0.8211879822235673  0.1828330024135287
  0.5290592723600464  0.5546688529984084  0.4714959559481864
  0.2094193791923860  0.2537020181899994  0.0898510519148075
  0.7760444250078589  0.5205331221439522  0.3232174584496398
  0.0882023263561895  0.3749643706973814  0.8465367909471099
  0.6795572336353382  0.2648933538256438  0.7452872322416697
  0.0327552379675082  0.6302113684159044  0.0789507859639880
  0.3815970222891624  0.9796080595150756  0.0663718226092984
  0.2874204680702062  0.7444485102306955  0.0710712006273289
  0.5478391626788721  0.0723432712895624  0.1284611496024698
  0.6565345513203035  0.4747347922648816  0.6276326994510376
  0.1892996454408842  0.0440562106573872  0.0236718463732537
  0.4992909353151865  0.6346000636669148  0.0698602872583176
  0.0050914787878558  0.2829735720447160  0.4582742954142576
  0.3141429181535480  0.3763396933244788  0.2598139563384740
  0.8262536058381136  0.8440927842627627  0.6070887366312322
  0.5867014372276638  0.0794276805018916  0.6931191307056170
  0.0696954720903368  0.6656542264426053  0.6398541320971612
  0.7449063986874170  0.5880310015944763  0.1319712911857824
  0.2558842848254003  0.2944988825568682  0.4535985759546032
  0.1996663571955687  0.5287736961001288  0.0312572660935713

 -0.11862588E-01 -0.83051875E-02  0.82089744E-02
  0.11124488E-01 -0.17964011E-02 -0.28721771E-02
  0.63843135E-02  0.10461134E-02  0.10897240E-02
  0.51351400E-02 -0.48576920E-02 -0.90463325E-04
 -0.58022256E-02 -0.35433170E-02  0.88927219E-02
  0.42494683E-02 -0.66176481E-03 -0.22523988E-01
 -0.12425218E-01  0.38787953E-02  0.17498499E-01
 -0.13710183E-01  0.10294839E-01 -0.21088212E-02
  0.22477188E-02  0.24418816E-02 -0.66475407E-02
 -0.23831875E-02 -0.69930852E-02 -0.13899654E-01
  0.17897645E-01 -0.79332189E-02  0.30548963E-02
 -0.61150828E-02  0.90755035E-02  0.13604815E-01
  0.71853761E-02 -0.77574663E-02  0.17072519E-01
  0.12777849E-01  0.10231623E-01  0.42388718E-02
 -0.11916933E-01 -0.24252241E-01 -0.19674671E-02
 -0.14403589E-02  0.11352141E-01 -0.42412269E-02
  0.66976034E-02  0.13908200E-01 -0.17578672E-02
  0.18454082E-02 -0.35560631E-02 -0.54017727E-02
  0.52998274E-02 -0.58814722E-02  0.40282988E-02
  0.16822062E-01  0.54244631E-02 -0.77169186E-02
  0.12111837E-02  0.20659258E-01  0.40440475E-02
  0.10702276E-01 -0.43515178E-02  0.27798121E-02
 -0.29655643E-03  0.21312997E-01  0.17151149E-01
 -0.53541523E-02  0.11802309E-01  0.79318275E-04
 -0.57664368E-02  0.85635693E-02 -0.14439352E-01
  0.12412309E-01  0.54429098E-02  0.36854673E-02
 -0.58681198E-02  0.36731992E-02 -0.58792853E-02
 -0.92397181E-02  0.61410481E-02  0.26915758E-02
 -0.58045891E-02  0.97189689E-02  0.75565318E-02
  0.77710639E-02  0.11206821E-01  0.11414455E-01
 -0.79791898E-03 -0.14314433E-02 -0.26428656E-01
  0.67586052E-02 -0.16397410E-01 -0.61439950E-02
  0.58041092E-02 -0.18794979E-01 -0.21084790E-02
 -0.35155594E-02 -0.81049328E-02  0.69386124E-03
  0.16095252E-02 -0.85616613E-02  0.13579088E-01
  0.38303494E-02  0.28808581E-02  0.52317423E-04
  0.79962201E-02 -0.36646873E-03 -0.44095018E-03
  0.10289457E-01 -0.13200860E-01  0.14335373E-01
  0.11232813E-01  0.32822452E-02  0.19304042E-03
  0.12412153E-01  0.76199872E-02  0.52934075E-02
 -0.24054237E-01  0.15015387E-01  0.14220073E-01
 -0.54347577E-02  0.10410909E-03  0.13639770E-01
  0.10493547E-01 -0.16734286E-01  0.10696480E-01
  0.74784924E-03 -0.70557208E-02  0.39706067E-03
  0.18846741E-02  0.12015954E-01 -0.26455371E-04
  0.17710668E-01 -0.94253184E-02  0.37722344E-02
 -0.37583930E-02  0.20194063E-02 -0.15012739E-01
 -0.12139181E-01  0.65874316E-02  0.47316027E-02
 -0.20723427E-02  0.98597809E-02 -0.12224559E-01
  0.75423759E-03 -0.10049628E-01 -0.11696507E-01
 -0.94921959E-02 -0.16323039E-01 -0.26775564E-02
  0.25995490E-02 -0.11546460E-01 -0.15977970E-01
  0.85387865E-02 -0.24569304E-01 -0.63007311E-02
  0.52474696E-02 -0.19913480E-01  0.10773417E-01
 -0.15731260E-01  0.91901559E-03  0.63447805E-02
  0.90448883E-02 -0.23947446E-02 -0.62114340E-02
 -0.63273162E-02  0.13192939E-01 -0.20477385E-01
  0.92893514E-02 -0.43357150E-02 -0.82484975E-02
  0.95841528E-02  0.13865689E-01  0.10990621E-01
 -0.16237501E-01 -0.23944119E-02 -0.15298022E-01
 -0.13470002E-01  0.93357979E-02 -0.34608327E-02
  0.13725042E-01 -0.57846848E-02 -0.66352138E-02
 -0.40739408E-02  0.86390336E-03 -0.11613982E-02
 -0.63865129E-02 -0.83534175E-02 -0.66537420E-02
 -0.10515472E-01  0.51660250E-02  0.13976754E-01
  0.72681164E-02  0.10000603E-01  0.75588250E-02
 -0.32210181E-02 -0.22822425E-01  0.77002661E-02
 -0.14981737E-01 -0.31137607E-02  0.16030221E-01
  0.20805149E-01  0.10594760E-01 -0.17356606E-01
 -0.12258808E-01 -0.13477567E-02  0.62220895E-02
  0.53102659E-02  0.12686960E-01 -0.24592098E-02
 -0.70052583E-02 -0.42073768E-02  0.87141719E-02
 -0.33319939E-02  0.18073162E-01 -0.18780355E-01
  0.63087561E-04  0.92387335E-02 -0.17909393E-01
 -0.93480332E-02 -0.90210659E-03  0.20543249E-02
  0.24694819E-01 -0.11676046E-01 -0.37064729E-02
  0.28239100E-02 -0.11140472E-01 -0.24744493E-01
  0.27564881E-02  0.18061721E-01  0.48656945E-02
 -0.21395814E-01  0.81744300E-02 -0.32619230E-01
  0.66821971E-02 -0.90966082E-02 -0.17049412E-01
  0.19112435E-01 -0.13086460E-01 -0.93610032E-02
  0.63101620E-02  0.11375262E-01  0.33121732E-02
  0.11315935E-02  0.33187041E-02  0.95262577E-02
  0.29979079E-02  0.93432299E-02 -0.61128405E-02
  0.11811298E-01  0.56581723E-02  0.86664297E-02
 -0.11289104E-01 -0.55869792E-05  0.55069614E-02
  0.24521601E-02 -0.18357728E-02  0.60562686E-02
  0.25219116E-01  0.18147448E-01  0.14084081E-01
 -0.11861231E-01 -0.72028230E-02 -0.16566009E-02
 -0.10653265E-01 -0.59473585E-02 -0.85890464E-02
  0.14761132E-01 -0.22587519E-01 -0.17696340E-01
 -0.11040897E-01  0.59573841E-02  0.32285172E-01
  0.10081354E-01 -0.16715194E-02  0.53227828E-02
  0.11368947E-01 -0.42565226E-02 -0.21832549E-01
 -0.67725478E-02  0.80469511E-02  0.28896317E-01
 -0.76650933E-02 -0.75006078E-02 -0.11675237E-01
 -0.13026846E-01  0.32777621E-02 -0.13161746E-01
 -0.97717514E-02  0.86919202E-02 -0.16564225E-01
 -0.41905456E-02  0.12915987E-01 -0.33356522E-02
  0.43679073E-02  0.83797416E-03  0.30307997E-01
 -0.10061455E-01 -0.11779048E-01 -0.47381534E-02
  0.16884931E-02 -0.40738439E-02  0.30616632E-01
  0.13373244E-01  0.74899954E-02 -0.51873317E-02
  0.87226248E-02 -0.19821811E-01  0.82734859E-02
  0.10175914E-02 -0.26382472E-01  0.35270847E-02
 -0.12006405E-01  0.79977031E-02  0.93496538E-02
 -0.14741592E-02 -0.14859618E-02 -0.11693769E-01
 -0.12418592E-01  0.64964499E-02  0.74193056E-03
 -0.10239909E-01  0.18302237E-01 -0.15785420E-01
  0.66243742E-02  0.50712243E-02 -0.94755001E-02
  0.15204173E-01 -0.27797248E-01 -0.19005979E-02
 -0.12014217E-01 -0.10885950E-01 -0.16330427E-01
  0.33714439E-02 -0.89067865E-02 -0.16967750E-01
  0.10919873E-01  0.14445266E-02  0.12532699E-01
 -0.10034321E-01  0.15096943E-01  0.36608861E-02
 -0.91433107E-02  0.16554020E-02 -0.51902102E-02
 -0.15752899E-01 -0.60563808E-02  0.16406962E-01
 -0.18387298E-01  0.18268131E-01 -0.42992207E-02
  0.24959742E-02 -0.18483659E-01  0.13939879E-01
 -0.33805761E-02 -0.13734951E-01  0.73986474E-02
 -0.63972802E-02  0.54550170E-02 -0.97260010E-02
  0.18868810E-02  0.33496887E-02 -0.18726795E-01
  0.37881729E-03  0.31485113E-02 -0.74570429E-02
  0.31005971E-02 -0.16873497E-01  0.23457000E-02
  0.22905307E-01  0.30936235E-02 -0.21725230E-01
 -0.12092200E-01 -0.13016879E-02 -0.21988672E-01
  0.19822138E-02  0.10021239E-01  0.27219889E-01
 -0.14753057E-01 -0.12631200E-01  0.22997536E-02
 -0.21045113E-01 -0.10194340E-02 -0.11173530E-01
 -0.75058099E-02  0.10570945E-01  0.23600647E-01
  0.17737475E-01  0.42254951E-02  0.14010480E-01
 -0.50078626E-02  0.12910315E-01  0.54059476E-02
  0.11782352E-01  0.32066767E-02 -0.29989802E-02
 -0.12216255E-01  0.33315768E-01 -0.18252455E-01
  0.95217287E-03 -0.28331228E-02 -0.19576088E-01
  0.15503535E-02  0.99097725E-02  0.96120850E-02
 -0.22142092E-01 -0.36771387E-02  0.81577417E-02
 -0.11728174E-01 -0.11385139E-01  0.28280342E-01
 -0.86359013E-03 -0.42475162E-02  0.60797429E-02
 -0.30105369E-02  0.21678549E-01 -0.13155898E-01
 -0.56636616E-02 -0.29158506E-01  0.11172784E-01
  0.24852462E-01 -0.11317866E-01  0.19546451E-01
 -0.78742646E-02 -0.11081525E-01 -0.93969058E-02
 -0.67184370E-02  0.84164319E-02 -0.42521738E-02
  0.14408439E-01  0.40987353E-02  0.35442524E-02
  0.11635104E-01 -0.46436309E-02 -0.45537869E-02
 -0.22981972E-01  0.10021618E-01 -0.30422485E-02
 -0.69042414E-02  0.20799454E-01  0.88561667E-02
 -0.27126039E-02 -0.11002138E-01  0.47241613E-02
  0.12041010E-01  0.10010560E-01  0.11893840E-01
  0.16663059E-01 -0.47752200E-02 -0.66473438E-02
 -0.27336515E-02  0.32204979E-02 -0.47530598E-02
 -0.52393653E-02 -0.48989385E-02  0.27836040E-01
 -0.20175346E-01  0.19067617E-01  0.19930247E-02
  0.19415979E-01  0.43150275E-02  0.63191149E-02
 -0.74904914E-02  0.66747895E-02  0.67425189E-02
 -0.17899778E-01 -0.35410938E-02 -0.17800802E-01
  0.20818581E-02  0.13121671E-01 -0.41335488E-02
  0.11742205E-01 -0.22404955E-01  0.80777213E-02
 -0.47664512E-02  0.71766725E-02  0.16438911E-01

           1
   1.0000000000000000     
  0.41626759E-01 -0.97636381E-03 -0.11034266E-02  0.42666654E-01
  0.28532585E+00  0.84729287E+00  0.75076509E+00
  0.73533898E+00  0.23568773E-01  0.10731392E+00
  0.41368356E+00  0.55076644E+00  0.76239251E+00
  0.71071998E+00  0.24073128E+00  0.41394616E+00
  0.53113669E+00  0.94122969E+00  0.97452123E+00
  0.92554576E+00  0.67090654E+00  0.40455949E+00
  0.53953157E+00  0.43821552E+00  0.61572369E-01
  0.91893304E+00  0.84101112E+00  0.89271112E+00
  0.90090257E+00  0.91573229E+00  0.16074314E+00
  0.43654117E+00  0.27905587E-01  0.25648763E+00
  0.50189296E+00  0.65330265E+00  0.34373749E+00
  0.33487619E+00  0.35673899E+00  0.56995588E+00
  0.79806287E+00  0.37289205E+00  0.76294983E+00
  0.68582918E+00  0.73677656E+00  0.96209092E+00
  0.36500104E+00  0.59572038E+00  0.13056433E+00
  0.92074378E+00  0.22972280E+00  0.93179413E+00
  0.17243663E+00  0.37854449E+00  0.98198037E+00
  0.42015690E+00  0.33193704E+00  0.37033169E+00
  0.12978303E+00  0.25092307E+00  0.78213770E+00
  0.86130076E+00  0.15168389E-01  0.50616100E+00
  0.12544837E+00  0.75209015E+00  0.13891564E+00
  0.25050643E+00  0.67628596E+00  0.62017167E+00
  0.86067305E-01  0.38217720E+00  0.34714130E+00
  0.73041953E+00  0.49963536E+00  0.46873889E+00
  0.13793260E+00  0.81937450E+00  0.51779202E+00
  0.96070912E+00  0.18771251E+00  0.30684190E+00
  0.18169206E+00  0.62715350E+00  0.90813478E+00
  0.65108196E+00  0.81460607E+00  0.71783510E+00
  0.50999258E+00  0.11388913E+00  0.49997609E+00
  0.35153133E+00  0.93877557E-01  0.94446275E+00
  0.93458010E+00  0.58703529E+00  0.64392933E+00
  0.64201709E+00  0.24518041E+00  0.89449342E+00
  0.87515515E+00  0.66424570E+00  0.12517048E+00
  0.56149679E+00  0.81871459E+00  0.19452802E+00
  0.25926076E+00  0.10468293E+00  0.63461691E+00
  0.68358236E-01  0.97204813E+00  0.70959545E+00
  0.76295613E+00  0.28733410E+00  0.16442675E+00
  0.82142749E+00  0.62319737E+00  0.82925277E+00
  0.75363200E+00  0.77312653E+00  0.51504261E+00
  0.13436989E+00  0.95075715E+00  0.94190914E+00
  0.80054119E+00  0.44524146E+00  0.99682195E+00
  0.90592981E+00  0.11490293E+00  0.73821264E+00
  0.79524217E+00  0.13065607E-01  0.93748850E+00
  0.48765085E+00  0.67598043E+00  0.55169192E+00
  0.69280787E+00  0.57404675E+00  0.25415369E+00
  0.47910777E+00  0.77147874E-01  0.77056817E+00
  0.10930433E+00  0.52999167E+00  0.14015435E+00
  0.70514989E+00  0.93066432E+00  0.33913679E+00
  0.95156922E+00  0.38049191E+00  0.52215059E+00
  0.31783353E+00  0.33003586E+00  0.14312448E+00
  0.24684950E+00  0.59171914E+00  0.36942614E+00
  0.54442292E+00  0.43794712E+00  0.56494070E+00
  0.11919469E+00  0.16309420E+00  0.55044266E-01
  0.47247445E+00  0.66811691E+00  0.93569420E+00
  0.30122496E+00  0.17131817E+00  0.41222664E+00
  0.23997273E+00  0.95766879E+00  0.32228391E+00
  0.32473580E+00  0.86663457E+00  0.10344229E+00
  0.39002051E+00  0.86212801E+00  0.50952511E+00
  0.60762534E-01  0.71229961E+00  0.76048540E+00
  0.67353000E+00  0.18662252E+00  0.64772180E+00
  0.10855560E+00  0.45869934E+00  0.74778936E+00
  0.53022773E+00  0.19976003E+00  0.12705994E+00
  0.39907288E+00  0.29740494E+00  0.82157497E+00
  0.34364532E-01  0.92670572E+00  0.37721854E+00
  0.57506898E+00  0.51494548E+00  0.24415608E+00
  0.96701210E+00  0.48948243E+00  0.44415684E+00
  0.60849722E+00  0.71406412E+00  0.27710593E+00
  0.49433355E+00  0.79094092E+00  0.93478254E+00
  0.49784802E-01  0.15464786E-01  0.84056262E+00
  0.30038560E+00  0.24759877E+00  0.89034575E+00
  0.85040902E+00  0.76233774E+00  0.37301228E-01
  0.94025639E+00  0.23843076E+00  0.75780096E+00
  0.60262744E-01  0.84249627E+00  0.68306717E+00
  0.23311059E+00  0.94580212E+00  0.86365546E+00
  0.20201386E+00  0.48328065E+00  0.42121223E+00
  0.15323150E+00  0.96327459E+00  0.41957155E+00
  0.51926560E+00  0.34049824E+00  0.47046250E+00
  0.36279980E+00  0.93584476E+00  0.39502828E+00
  0.82129869E+00  0.36482912E+00  0.55206158E+00
  0.69678692E+00  0.94427382E-02  0.43450875E+00
  0.62710405E+00  0.76269692E+00  0.55233928E+00
  0.57546090E+00  0.28258422E+00  0.34726343E-01
  0.23369304E+00  0.48261000E+00  0.70906426E+00
  0.92889242E+00  0.70216597E+00  0.23992962E+00
  0.75527362E+00  0.81142514E+00  0.37881791E+00
  0.23507034E+00  0.88154132E+00  0.20313460E+00
  0.78462678E+00  0.98437797E+00  0.23709525E+00
  0.72337089E+00  0.39064696E+00  0.89239606E+00
  0.64136552E+00  0.18935524E+00  0.52476662E+00
  0.23455202E+00  0.69940215E+00  0.45393701E+00
  0.73000033E+00  0.70863989E+00  0.79872883E+00
  0.80899474E+00  0.63731825E+00  0.51422845E+00
  0.44953001E+00  0.76170861E+00  0.46111501E+00
  0.35742994E-01  0.16516285E+00  0.15527875E+00
  0.40162163E+00  0.19584160E+00  0.12018317E+00
  0.34224010E+00  0.58749324E+00  0.28226325E+00
  0.15090893E+00  0.61423181E+00  0.23251311E+00
  0.77352616E+00  0.90343439E+00  0.86485316E+00
  0.90306700E+00  0.11974587E-02  0.14696270E-01
  0.84022098E+00  0.52556879E+00  0.73452516E+00
  0.91224078E+00  0.71054054E+00  0.78053186E+00
  0.55889171E+00  0.61104104E+00  0.87634658E+00
  0.81130325E+00  0.57745569E+00  0.95453385E+00
  0.43333818E+00  0.46860332E+00  0.63570790E+00
  0.17904386E+00  0.20021986E+00  0.65085942E+00
  0.32105551E-01  0.42798379E+00  0.63550058E+00
  0.35524619E+00  0.70635055E-01  0.71228065E+00
  0.41520341E+00  0.16235313E+00  0.36194618E+00
  0.27992937E+00  0.94144082E-01  0.50798815E+00
  0.61814301E-01  0.88355540E+00  0.16733814E-01
  0.63489252E+00  0.84131452E+00  0.86553104E-01
  0.71297953E+00  0.41199701E+00  0.83046801E-01
  0.81593011E+00  0.27333882E+00  0.28460697E+00
  0.50654607E+00  0.96383202E+00  0.80814411E+00
  0.99443232E+00  0.56232461E-01  0.63773427E+00
  0.47302361E+00  0.94061938E+00  0.56255931E+00
  0.17230169E+00  0.75898783E+00  0.81254228E+00
  0.62903151E-01  0.42157175E+00  0.19727877E+00
  0.64744571E-01  0.56364943E+00  0.83407423E+00
  0.41330142E-02  0.81602518E+00  0.45779270E+00
  0.47734666E+00  0.40024708E+00  0.84149468E+00
  0.63919980E+00  0.24301627E+00  0.22339628E+00
  0.67562380E+00  0.85746065E-01  0.95768944E+00
  0.92487035E+00  0.39168979E+00  0.33155781E-01
  0.39470142E+00  0.68596827E+00  0.65401329E+00
  0.47536736E+00  0.16291184E+00  0.88016645E+00
  0.29136158E+00  0.83999470E+00  0.59594739E+00
  0.20299675E+00  0.98267207E+00  0.67332551E+00
  0.39836197E+00  0.40119586E+00  0.81742677E-01
  0.87898199E-01  0.20531724E+00  0.93066564E+00
  0.35732256E+00  0.65380219E+00  0.87214822E+00
  0.96433012E+00  0.38237605E-01  0.40579370E+00
  0.80327762E+00  0.10187825E+00  0.64339246E+00
  0.58432097E+00  0.93695832E+00  0.28742966E+00
  0.40535349E+00  0.25560769E+00  0.69162924E+00
  0.82039876E+00  0.20298131E+00  0.88083821E-01
  0.37293989E-01  0.90199313E+00  0.25431334E+00
  0.85762294E+00  0.90129985E-01  0.84649702E+00
  0.24146520E+00  0.81006990E-01  0.27557319E+00
  0.43217893E+00  0.82118798E+00  0.18283300E+00
  0.52905927E+00  0.55466885E+00  0.47149596E+00
  0.20941938E+00  0.25370202E+00  0.89851052E-01
  0.77604443E+00  0.52053312E+00  0.32321746E+00
  0.88202326E-01  0.37496437E+00  0.84653679E+00
  0.67955723E+00  0.26489335E+00  0.74528723E+00
  0.32755238E-01  0.63021137E+00  0.78950786E-01
  0.38159702E+00  0.97960806E+00  0.66371823E-01
  0.28742047E+00  0.74444851E+00  0.71071201E-01
  0.54783916E+00  0.72343271E-01  0.12846115E+00
  0.65653455E+00  0.47473479E+00  0.62763270E+00
  0.18929965E+00  0.44056211E-01  0.23671846E-01
  0.49929094E+00  0.63460006E+00  0.69860287E-01
  0.50914788E-02  0.28297357E+00  0.45827430E+00
  0.31414292E+00  0.37633969E+00  0.25981396E+00
  0.82625361E+00  0.84409278E+00  0.60708874E+00
  0.58670144E+00  0.79427681E-01  0.69311913E+00
  0.69695472E-01  0.66565423E+00  0.63985413E+00
  0.74490640E+00  0.58803100E+00  0.13197129E+00
  0.25588428E+00  0.29449888E+00  0.45359858E+00
  0.19966636E+00  0.52877370E+00  0.31257266E-01
  0.00000000E+00  0.00000000E+00  0.00000000E+00
  0.00000000E+00  0.00000000E+00  0.00000000E+00
  0.00000000E+00  0.00000000E+00  0.00000000E+00
  0.00000000E+00  0.00000000E+00  0.00000000E+00
  0.00000000E+00  0.00000000E+00  0.00000000E+00
  0.00000000E+00  0.00000000E+00  0.00000000E+00
  0.00000000E+00  0.00000000E+00  0.00000000E+00
  0.00000000E+00  0.00000000E+00  0.00000000E+00
  0.00000000E+00  0.00000000E+00  0.00000000E+00
  0.00000000E+00  0.00000000E+00  0.00000000E+00
  0.00000000E+00  0.00000000E+00  0.00000000E+00
  0.00000000E+00  0.00000000E+00  0.00000000E+00
  0.00000000E+00  0.00000000E+00  0.00000000E+00
  0.00000000E+00  0.00000000E+00  0.00000000E+00
  0.00000000E+00  0.00000000E+00  0.00000000E+00
  0.00000000E+00  0.00000000E+00  0.00000000E+00
  0.00000000E+00  0.00000000E+00  0.00000000E+00
  0.00000000E+00  0.00000000E+00  0.00000000E+00
  0.00000000E+00  0.00000000E+00  0.00000000E+00
  0.00000000E+00  0.00000000E+00  0.00000000E+00
  0.00000000E+00  0.00000000E+00  0.00000000E+00
  0.00000000E+00  0.00000000E+00  0.00000000E+00
  0.00000000E+00  0.00000000E+00  0.00000000E+00
  0.00000000E+00  0.00000000E+00  0.00000000E+00
  0.00000000E+00  0.00000000E+00  0.00000000E+00
  0.00000000E+00  0.00000000E+00  0.00000000E+00
  0.00000000E+00  0.00000000E+00  0.00000000E+00
  0.00000000E+00  0.00000000E+00  0.00000000E+00
  0.00000000E+00  0.00000000E+00  0.00000000E+00
  0.00000000E+00  0.00000000E+00  0.00000000E+00
  0.00000000E+00  0.00000000E+00  0.00000000E+00
  0.00000000E+00  0.00000000E+00  0.00000000E+00
  0.00000000E+00  0.00000000E+00  0.00000000E+00
  0.00000000E+00  0.00000000E+00  0.00000000E+00
  0.00000000E+00  0.00000000E+00  0.00000000E+00
  0.00000000E+00  0.00000000E+00  0.00000000E+00
  0.00000000E+00  0.00000000E+00  0.00000000E+00
  0.00000000E+00  0.00000000E+00  0.00000000E+00
  0.00000000E+00  0.00000000E+00  0.00000000E+00
  0.00000000E+00  0.00000000E+00  0.00000000E+00
  0.00000000E+00  0.00000000E+00  0.00000000E+00
  0.00000000E+00  0.00000000E+00  0.00000000E+00
  0.00000000E+00  0.00000000E+00  0.00000000E+00
  0.00000000E+00  0.00000000E+00  0.00000000E+00
  0.00000000E+00  0.00000000E+00  0.00000000E+00
  0.00000000E+00  0.00000000E+00  0.00000000E+00
  0.00000000E+00  0.00000000E+00  0.00000000E+00
  0.00000000E+00  0.00000000E+00  0.00000000E+00
  0.00000000E+00  0.00000000E+00  0.00000000E+00
  0.00000000E+00  0.00000000E+00  0.00000000E+00
  0.00000000E+00  0.00000000E+00  0.00000000E+00
  0.00000000E+00  0.00000000E+00  0.00000000E+00
  0.00000000E+00  0.00000000E+00  0.00000000E+00
  0.00000000E+00  0.00000000E+00  0.00000000E+00
  0.00000000E+00  0.00000000E+00  0.00000000E+00
  0.00000000E+00  0.00000000E+00  0.00000000E+00
  0.00000000E+00  0.00000000E+00  0.00000000E+00
  0.00000000E+00  0.00000000E+00  0.00000000E+00
  0.00000000E+00  0.00000000E+00  0.00000000E+00
  0.00000000E+00  0.00000000E+00  0.00000000E+00
  0.00000000E+00  0.00000000E+00  0.00000000E+00
  0.00000000E+00  0.00000000E+00  0.00000000E+00
  0.00000000E+00  0.00000000E+00  0.00000000E+00
  0.00000000E+00  0.00000000E+00  0.00000000E+00
  0.00000000E+00  0.00000000E+00  0.00000000E+00
  0.00000000E+00  0.00000000E+00  0.00000000E+00
  0.00000000E+00  0.00000000E+00  0.00000000E+00
  0.00000000E+00  0.00000000E+00  0.00000000E+00
  0.00000000E+00  0.00000000E+00  0.00000000E+00
  0.00000000E+00  0.00000000E+00  0.00000000E+00
  0.00000000E+00  0.00000000E+00  0.00000000E+00
  0.00000000E+00  0.00000000E+00  0.00000000E+00
  0.00000000E+00  0.00000000E+00  0.00000000E+00
  0.00000000E+00  0.00000000E+00  0.00000000E+00
  0.00000000E+00  0.00000000E+00  0.00000000E+00
  0.00000000E+00  0.00000000E+00  0.00000000E+00
  0.00000000E+00  0.00000000E+00  0.00000000E+00
  0.00000000E+00  0.00000000E+00  0.00000000E+00
  0.00000000E+00  0.00000000E+00  0.00000000E+00
  0.00000000E+00  0.00000000E+00  0.00000000E+00
  0.00000000E+00  0.00000000E+00  0.00000000E+00
  0.00000000E+00  0.00000000E+00  0.00000000E+00
  0.00000000E+00  0.00000000E+00  0.00000000E+00
  0.00000000E+00  0.00000000E+00  0.00000000E+00